 # Version information for this restart file 
 # current date 2016-07-12 11:09:41.494
 # current working dir /fs3/e05/e05/gfvr/rcut-fixed-A-3189f38c0b82e789c60773310b94a123/run-1
 # Program compiled at                              Tue Feb  2 22:08:17 GMT 2016
 # Program compiled on                                                eslogin008
 # Program compiled for                                                   ARCHER
 # Source code revision number                                         svn:16458
 &GLOBAL
   PROJECT_NAME hematite
   OUTPUT_FILE_NAME ./out/base
   RUN_TYPE  MD
 &END GLOBAL
 &MOTION
   &MD
     ENSEMBLE  NPT_F
     STEPS  10000
     TIMESTEP     4.9999999999999994E-01
     STEP_START_VAL  500
     TIME_START_VAL     2.4999999999999795E+02
     ECONS_START_VAL    -4.5589206925946146E+03
     TEMPERATURE     3.3000000000000006E+02
     &BAROSTAT
       PRESSURE     1.0129999999999999E+00
       &VELOCITY
            -3.5121425639523303E-06    6.3755145462275866E-07   -4.0811703306085404E-07    6.3755145462275866E-07 \
            -3.4586354774043122E-06   -6.3089809565566919E-07   -4.0811703306085404E-07   -6.3089809565566919E-07   -3.8470529507064291E-07
       &END VELOCITY
       &MASS
             4.2330639099311793E+08    4.2330639099311793E+08    4.2330639099311793E+08    4.2330639099311793E+08 \
             4.2330639099311793E+08    4.2330639099311793E+08    4.2330639099311793E+08    4.2330639099311793E+08    4.2330639099311793E+08
       &END MASS
       &THERMOSTAT
         TYPE  CSVR
         &CSVR
           TIMECON     9.6755373060191385E-01
           &THERMOSTAT_ENERGY
                 9.7783561628989227E-02
           &END THERMOSTAT_ENERGY
           &RNG_INIT
Wiener process for Thermostat # 1        1 F T F   9.4380946372331231E-01        1810614026.0         417406437.0        2421081021.0        3661800906.0        1141876047.0         628275574.0             12345.0             12345.0             12345.0             12345.0             12345.0             12345.0             12345.0             12345.0             12345.0             12345.0             12345.0             12345.0
           &END RNG_INIT
         &END CSVR
       &END THERMOSTAT
     &END BAROSTAT
     &THERMOSTAT
       TYPE  CSVR
       REGION  GLOBAL
       &CSVR
         TIMECON     9.9999999999999982E+00
         &THERMOSTAT_ENERGY
               7.8798173209075939E-01
         &END THERMOSTAT_ENERGY
         &RNG_INIT
Wiener process for Thermostat # 1        1 F T F   1.0720623068895812E+00         908230163.0        3716970445.0        2851123288.0        2173325208.0          95241352.0          84637435.0             12345.0             12345.0             12345.0             12345.0             12345.0             12345.0             12345.0             12345.0             12345.0             12345.0             12345.0             12345.0
         &END RNG_INIT
       &END CSVR
     &END THERMOSTAT
     &AVERAGES  T
       &RESTART_AVERAGES
         ITIMES_START  1
         AVECPU     1.2082632583418815E+02
         AVEHUGONIOT     0.0000000000000000E+00
         AVETEMP_BARO     6.9375565464422482E+02
         AVEPOT    -4.5600258221273398E+03
         AVEKIN     4.0684152607963769E-01
         AVETEMP     3.6291028149744039E+02
         AVEKIN_QM     0.0000000000000000E+00
         AVETEMP_QM     0.0000000000000000E+00
         AVEVOL     1.5909291859899837E+04
         AVECELL_A     1.3774280106819514E+01
         AVECELL_B     1.3681613598660858E+01
         AVECELL_C     8.5154666292867731E+01
         AVEALPHA     8.6085499762667055E+01
         AVEBETA     9.4525700785470804E+01
         AVEGAMMA     9.4970748354897239E+01
         AVE_ECONS    -2.8567370056320667E+00
         AVE_PRESS    -1.3395036250754732E+04
         AVE_PXX    -2.0805932549169611E+04
       &END RESTART_AVERAGES
     &END AVERAGES
   &END MD
   &PRINT
     &TRAJECTORY  ON
       FILENAME ./traj/pos
       FORMAT  DCD_ALIGNED_CELL
       &EACH
         MD  1
       &END EACH
     &END TRAJECTORY
     &VELOCITIES  ON
       FILENAME ./traj/vel
       FORMAT  DCD
       &EACH
         MD  1
       &END EACH
     &END VELOCITIES
     &FORCES  ON
       FILENAME ./traj/for
       FORMAT  DCD
       &EACH
         MD  1
       &END EACH
     &END FORCES
     &RESTART  ON
       FILENAME ./restart/base
       &EACH
         MD  5
       &END EACH
     &END RESTART
   &END PRINT
 &END MOTION
 &FORCE_EVAL
   METHOD  QS
   STRESS_TENSOR  ANALYTICAL
   &DFT
     BASIS_SET_FILE_NAME ../input/BASIS_ADMM
     BASIS_SET_FILE_NAME ../input/BASIS_MOLOPT
     POTENTIAL_FILE_NAME ../input/GTH_POTENTIALS
     UKS  T
     CHARGE  0
     &SCF
       MAX_SCF  40
       EPS_SCF     1.0000000000000001E-05
       SCF_GUESS  ATOMIC
       &OT  T
         MINIMIZER  DIIS
         PRECONDITIONER  FULL_SINGLE_INVERSE
       &END OT
       &OUTER_SCF  T
         EPS_SCF     1.0000000000000001E-05
         MAX_SCF  600
       &END OUTER_SCF
     &END SCF
     &AUXILIARY_DENSITY_MATRIX_METHOD
       ADMM_PURIFICATION_METHOD  MO_DIAG
       METHOD  BASIS_PROJECTION
     &END AUXILIARY_DENSITY_MATRIX_METHOD
     &QS
       EPS_DEFAULT     9.9999999999999998E-13
     &END QS
     &MGRID
       CUTOFF     4.0000000000000000E+02
     &END MGRID
     &XC
       DENSITY_CUTOFF     1.0000000000000000E-10
       GRADIENT_CUTOFF     1.0000000000000000E-10
       TAU_CUTOFF     1.0000000000000000E-10
       &XC_FUNCTIONAL  NO_SHORTCUT
         &PBE  T
           SCALE_X     0.0000000000000000E+00
           SCALE_C     1.0000000000000000E+00
         &END PBE
         &XWPBE  T
           SCALE_X    -1.2000000000000000E-01
           SCALE_X0     1.0000000000000000E+00
           OMEGA     1.1000000000000000E-01
         &END XWPBE
       &END XC_FUNCTIONAL
       &HF
         FRACTION     1.2000000000000000E-01
         &SCREENING
           EPS_SCHWARZ     1.0000000000000000E-04
           SCREEN_ON_INITIAL_P  F
         &END SCREENING
         &INTERACTION_POTENTIAL
           POTENTIAL_TYPE  SHORTRANGE
           OMEGA     1.1000000000000000E-01
         &END INTERACTION_POTENTIAL
         &MEMORY
           EPS_STORAGE_SCALING     1.0000000000000001E-01
           MAX_MEMORY  2400
         &END MEMORY
       &END HF
       &VDW_POTENTIAL
         POTENTIAL_TYPE  PAIR_POTENTIAL
         &PAIR_POTENTIAL
           TYPE  DFTD3
           PARAMETER_FILE_NAME ../input/dftd3.dat
           REFERENCE_FUNCTIONAL PBE0
         &END PAIR_POTENTIAL
       &END VDW_POTENTIAL
     &END XC
     &PRINT
     &END PRINT
   &END DFT
   &SUBSYS
     &CELL
       A     7.1324703148446389E+00   -3.1769971460723079E-02   -2.3632283587448573E-02
       B    -5.7165045949968740E-01    7.0483977956661654E+00   -4.1182602520015883E-02
       C    -3.4330717759269986E+00    2.7659992011393859E+00    4.4927929162594133E+01
       PERIODIC  XYZ
       MULTIPLE_UNIT_CELL  1 1 1
       &CELL_REF
         A     7.4100000000000001E+00    0.0000000000000000E+00    0.0000000000000000E+00
         B    -5.6075082412935573E-01    7.3887521621203573E+00    0.0000000000000000E+00
         C    -3.4053693773037792E+00    3.1567202268075030E+00    4.4759787497415424E+01
         MULTIPLE_UNIT_CELL  1 1 1
       &END CELL_REF
     &END CELL
     &COORD
FE1    4.2264728183203051E+00    5.7380116770111194E+00    1.8893547879477211E+01
FE1    9.2367380601242643E-01    2.1286688257706681E+00    1.8969933370373880E+01
FE1    4.1758270372100696E+00    2.5632180421205226E+00    2.2943316907218986E+01
FE2    3.9812917727696052E-02    6.3370328297859571E+00    2.6870467289441265E+01
FE2   -8.2569699700039489E-01    6.8296667249904761E+00    1.6643907078102757E+01
FE2    2.4915094318459974E+00    7.3143481791538765E+00    2.0752639671574478E+01
FE2   -7.9497823588821714E-01    3.7396911990610344E+00    2.0728388693786755E+01
FE2    2.5349094498542661E+00    4.0980809525403012E+00    2.4532590295559778E+01
FE1    2.7438116279158664E+00    7.0269545326258180E+00    1.6746017632140791E+01
FE1   -4.4928357505516309E-01    3.4251377533345879E+00    1.6794043018765759E+01
FE1    2.7751663709049716E+00    3.7631434783444759E+00    2.0619123249718726E+01
FE1    3.6168040376590693E-01    6.1101384457388246E+00    2.2911414946449828E+01
FE1    3.7044355587275262E+00    6.4558487453953841E+00    2.6684544771927939E+01
FE1    3.1173530970987695E-01    2.7823933855392191E+00    2.6796295747755156E+01
FE2    4.5527834199071675E+00    2.1557508572349948E+00    1.9050108742242923E+01
FE2   -1.2661238089799371E+00    7.5974765743543786E+00    2.4539750883002846E+01
FE1   -1.1232877750226384E+00    7.2479687085559785E+00    2.0627079910062861E+01
FE1    2.2379273970246860E+00    7.6869638327107790E+00    2.4609481624958306E+01
FE1   -1.0200890183439892E+00    4.1021867816052495E+00    2.4644041737366909E+01
FE2    6.1997001665830742E-01    5.7109432807011427E+00    1.9066226385035272E+01
FE2    3.9000493981420616E+00    6.0724774685715870E+00    2.2867448946827999E+01
FE2    5.9665688606550116E-01    2.5831419545732883E+00    2.2923966981823337E+01
FE2    3.9617901872545089E+00    2.8832211135485419E+00    2.6915027845517951E+01
FE2    3.1642188318475486E+00    3.4382847883237653E+00    1.6971398248630383E+01
O   -1.7945898945261107E+00    6.0644509156794681E+00    2.7802804478152680E+01
O    9.4965947115483662E-01    7.4951729580664841E+00    1.6091665747131827E+01
O    4.3222632393025169E+00    7.5462182140627956E+00    1.9814983700278077E+01
O    1.0836970041838947E+00    4.0341446238095617E+00    1.9859401383531612E+01
O    4.3555686432901206E+00    4.3911043744819533E+00    2.3705880648491672E+01
O    6.4411930112396509E-01    6.9409996844633346E+00    2.9121117775734813E+01
O   -1.1793897762424970E+00    5.9145881222523347E+00    1.4604036072489320E+01
O    2.3233516991241960E+00    6.3284415040176940E+00    1.8595924176531611E+01
O   -9.4749814597925774E-01    2.9093569579138121E+00    1.8593734370829122E+01
O    2.3326820001280231E+00    3.1324818569615860E+00    2.2550391205429431E+01
O   -7.8666061643365026E-01    8.0926241255947957E+00    2.6424584477791658E+01
O   -6.3646931018769897E-03    5.2407888112881178E+00    1.7208259759741097E+01
O    3.2831043522190178E+00    5.4953169849726322E+00    2.1111005654083350E+01
O   -3.4717276075651990E-02    1.9704077834222766E+00    2.1086240620111599E+01
O    3.3291843020762162E+00    2.3563181219888953E+00    2.4974027716080467E+01
O    2.4699870272342310E+00    4.9534473313897216E+00    1.5902639777565010E+01
O   -8.5035916693163105E-01    1.5774008164570081E+00    1.5564630905048785E+01
O    2.5213319669371947E+00    1.8450513744353512E+00    1.9924713595638515E+01
O    5.3497735566849847E-01    7.9711077608179046E+00    2.3828318859201858E+01
O    3.9556017955542213E+00    8.1923964138628076E+00    2.7605792509810293E+01
O    7.7671576834508982E-01    4.6541270930700804E+00    2.7530664633137611E+01
O    4.6144419649217481E+00    6.4396946916341555E+00    1.7123641881283184E+01
O    1.3887065717096083E+00    2.9004000455555263E+00    1.7249088774177011E+01
O    4.6322669309462343E+00    3.0339395210531581E+00    2.0971389236345665E+01
O   -1.5174082623254463E+00    6.7923767316373551E+00    2.2508515599981489E+01
O    1.8832947936350557E+00    6.9312674048303737E+00    2.6373582518585756E+01
O   -1.4467957537892342E+00    3.5245095834462568E+00    2.6404743131142613E+01
O    3.4152804661248872E+00    7.4446772051326384E+00    1.4592947306792960E+01
O    5.5637133341090883E-01    3.8548223913907358E+00    1.4728984448217375E+01
O    3.6293317018899867E+00    3.9605573444139255E+00    1.8673296211341334E+01
O   -5.9532408391575420E-01    5.8498819295712750E+00    2.5147370023516899E+01
O    3.2369512318329940E+00    5.9650581479076328E+00    3.0020289107074149E+01
O   -2.3373560263261892E-01    1.9457882612298432E+00    2.9876170119518086E+01
O   -1.2663111097095154E+00    5.3640857948122322E+00    1.9843665525174607E+01
O    2.0194925609245020E+00    5.7707234126670928E+00    2.3670584242609333E+01
O   -1.2544246083209423E+00    2.2363722950551934E+00    2.3807577297725892E+01
O    1.9360289809849482E+00    2.2516425668570261E+00    2.7590535275734656E+01
O    4.9311212547159968E+00    3.7422228299385099E+00    1.5781720599398984E+01
O    7.7259802658754828E-01    6.6615777145914459E+00    2.1029557032660172E+01
O    4.0648208105617094E+00    6.9858624524437891E+00    2.4901030897179254E+01
O    7.8445875628611417E-01    3.3702251071822209E+00    2.4926105859621721E+01
O    4.5706660629394786E+00    3.5313498772667482E+00    2.8829413789936570E+01
O    3.3328172757548273E+00    3.0436707304300961E+00    1.3534025830361761E+01
O   -3.0924194078491174E-01    7.4352486493035883E+00    1.8605664262547752E+01
O    3.1032074213622671E+00    7.8743240358821467E+00    2.2434043469292707E+01
O   -2.1323889418848094E-01    4.3889455427085906E+00    2.2466122708359990E+01
O    3.2783580176456684E+00    4.6004779548871877E+00    2.6400287787267501E+01
O    3.7887579906765474E+00    1.7257475465532297E+00    1.7292722352654746E+01
H    4.7713887886729350E-01    2.4639433518914040E+00    3.0308341731246806E+01
H   -3.4671494602781829E-02    7.5004936011607946E+00    2.9531471665236971E+01
H    3.0504331485983096E+00    6.7410918068747785E+00    2.9449505729152193E+01
H    4.9846074597725458E+00    4.3286393177024127E+00    2.8435705838489913E+01
H    1.7258174748453112E+00    4.6221120619384166E+00    2.7150375415820200E+01
H    4.9507106306176913E+00    8.3512686400284544E+00    2.7433310613521325E+01
H    7.0076623364976098E-01    8.2086087993093759E+00    1.5538560334138097E+01
H    5.2500516619030062E+00    3.1557448551892793E+00    1.5055609740440081E+01
H   -1.6961996367262357E+00    6.4455042852723157E+00    1.3984687084072332E+01
H    1.4102959831189679E+00    3.9746068068621661E+00    1.5112381903656456E+01
H    3.4524680978104247E+00    3.5378842875367900E+00    1.4386150621627676E+01
H    4.3226476326698720E+00    7.8760692781254136E+00    1.4703403506765168E+01
H    5.2033368836130585E+00    2.8855747506826566E+00    2.9164888389421055E+01
H    1.8869815216405494E+00    1.2726864274089464E+00    2.7308143717594454E+01
H   -1.8448869470142986E+00    6.1064796236116452E+00    2.8798846586497067E+01
H    7.3483714936951550E-01    6.0426046438115035E+00    2.9506554516267851E+01
H    3.5048665418327278E+00    6.3251607544163306E+00    3.0898437157741537E+01
H   -8.1189010929108696E-01    1.9648296558304281E+00    3.0685764849374053E+01
H   -3.2995741867382905E-01    1.8012772929362313E+00    1.4811867960076459E+01
H    3.1654875746075244E+00    5.3257832271496861E+00    1.5332400642281758E+01
H    2.8220184596224085E+00    3.5365996249516716E+00    1.2849751072960489E+01
H   -1.7872619690465283E+00    5.1863881155422860E+00    1.4981672480486036E+01
H    2.6962018740805527E-01    4.8327288776780257E+00    1.4729952621402088E+01
H    2.9224144794178839E+00    8.2523952240434539E+00    1.4305461604545174E+01
OW    1.2703832287175919E+01    5.1272087155281634E+00    9.5940244245705752E-01
HW    1.2675460759589759E+01    4.7704088965494122E+00    7.7968503346419055E-02
HW    1.3620846259118913E+01    5.0923376919886767E+00    1.2833297097089997E+00
OW    7.0666813597696621E-01    2.5466373771845823E+00    1.2244980117197771E+01
HW    6.9779351688048108E-01    3.0567471963281498E+00    1.3077154897880135E+01
HW   -1.1133821325441881E-01    2.7528034400629600E+00    1.1664627802235406E+01
OW    4.7797723242806009E+00    7.0907688928752775E+00    7.5324595411538038E+00
HW    5.2566072094243719E+00    6.3521410276894583E+00    7.0308058726772762E+00
HW    4.0506967626907207E+00    7.2914606375682522E+00    6.8640537242787234E+00
OW    8.2666823643936223E+00    5.2683153120624269E+00    2.1087548416862347E+00
HW    8.7682794673799425E+00    6.0783192362821419E+00    2.2141196412133333E+00
HW    8.4364992004345574E+00    4.7187954720096643E+00    2.9054772458303240E+00
OW    1.5214644085593447E+00   -4.6559479159536794E-02    1.2597816362810923E+01
HW    1.0947650743731943E+00    8.8812189230612393E-01    1.2621810498609877E+01
HW    1.3000754700449180E+00   -2.4562687075589770E-01    1.3521840488652218E+01
OW    9.5911412182499600E-01   -1.4939987444619975E+00    8.2858034629453634E+00
HW    1.5932381070042840E+00   -1.4952835852336994E+00    9.1166373803554936E+00
HW    1.5037587333231899E+00   -1.8917389109690712E+00    7.5583962663081472E+00
OW    3.9794076531267595E+00    3.2455042474709854E+00    7.0434870985297557E+00
HW    4.8003783866419836E+00    3.2358526913678713E+00    7.5707363764552404E+00
HW    3.2681332568034760E+00    3.0495117911597673E+00    7.6837729946498428E+00
OW    8.5536748026306029E+00    9.8423730015979114E+00    3.0671484719737565E+00
HW    8.0453942511243763E+00    9.2327317634225583E+00    3.6185611926134946E+00
HW    8.9032880598227795E+00    1.0519207050952870E+01    3.6959676997235764E+00
OW    2.9668871285583323E+00    4.5721451927278984E+00    4.8413747499788276E+00
HW    3.6247285035160273E+00    4.9903375593145451E+00    4.2515494879376741E+00
HW    3.5221480419887290E+00    4.0779697407999587E+00    5.5282034253068808E+00
OW    5.4179213570345190E+00    3.5057870122972656E+00    1.1050555520851223E+01
HW    4.5016570079362133E+00    3.2711179174473655E+00    1.1146653724232680E+01
HW    5.6372511367392830E+00    3.2755588491941157E+00    1.0077079382992352E+01
OW    2.2953079343442027E+00    8.8328613563221694E+00    9.9785179876238814E+00
HW    1.8722266637082288E+00    8.8764329067748537E+00    1.0847795826929126E+01
HW    3.0370221531319195E+00    8.1443179171920406E+00    1.0130215487912375E+01
OW    4.0706576341407246E+00    6.8737764688687477E+00    1.0058551631603450E+01
HW    4.6785062136811817E+00    6.5832516962126970E+00    1.0775622366622477E+01
HW    4.4251938816498324E+00    6.7943592794186065E+00    9.1509976605999181E+00
OW    6.7695880218296427E+00   -1.9503569334159563E+00    5.9183908099885043E+00
HW    6.6007044971393851E+00   -1.5074328354869309E+00    5.0947766587221421E+00
HW    6.2782349723469570E+00   -2.8326101448488146E+00    5.9134010751597881E+00
OW    5.7308190778759780E+00    5.9972841847574854E+00    1.1803847950168864E+01
HW    5.6704555196071906E+00    5.0368696347785464E+00    1.1489218053573575E+01
HW    6.7010577212195823E+00    6.2062811912142450E+00    1.1704674127653178E+01
OW    7.4578890100779727E-01    1.3209741294957167E+00    8.3682569204711452E+00
HW    6.5065441333631124E-01    3.2471404821616556E-01    8.4449662862673804E+00
HW    1.6589763074092561E+00    1.5480088684931754E+00    8.7240374164081480E+00
OW    6.0844066093895908E+00    3.0846635459369236E+00    8.5585312137823895E+00
HW    6.8152551289015344E+00    2.4035550607226006E+00    8.4461719485384119E+00
HW    6.5373312671610098E+00    3.9458577999261180E+00    8.3937587950211352E+00
OW    1.0033402509951168E+01    7.2952164453171102E+00    5.3796005652637993E+00
HW    9.0806585508160520E+00    7.5841166900500827E+00    5.2770207892633003E+00
HW    9.9443429378233734E+00    6.3016352577321468E+00    5.4294964261450742E+00
OW    2.0145971891583869E+00    5.3948294390716232E+00    1.0420710276056660E+01
HW    1.4517538091471309E+00    5.8957302096855253E+00    1.0934540126501398E+01
HW    2.8776615257789278E+00    5.8556845883714717E+00    1.0258470551201590E+01
OW    2.6793669947310170E+00    4.2526903759747814E+00    3.2975100233783088E+01
HW    2.3477059277824521E+00    4.1830364534146485E+00    3.2051645590392177E+01
HW    3.4810988877861173E+00    3.7069958978340201E+00    3.2897815759893845E+01
OW   -1.3604859355856007E+01    1.2087540941253254E+01    3.5289991325733460E+01
HW   -1.4423792155542769E+01    1.1658603835778061E+01    3.4941756508005113E+01
HW   -1.2943353684101801E+01    1.1916980552265100E+01    3.4529988423418715E+01
OW    1.1831312629256117E+00    1.6722623611772203E+00    3.3809273061014132E+01
HW    7.0075331592501922E-01    2.4510529058415997E+00    3.3396994257941031E+01
HW    8.3113005721444189E-01    1.4326688400723362E+00    3.4701816555148660E+01
OW    1.9254016529086002E+01    9.0498271637558254E+00    4.1144646660397115E+01
HW    1.8391629182438098E+01    9.4672298876242778E+00    4.1489236102490821E+01
HW    1.9170967380762889E+01    8.2558156592722760E+00    4.0587773756415480E+01
OW    5.4447795504512431E-01    6.4415061617544929E+00    3.2007673062347465E+01
HW    1.1760087721996488E+00    6.5520599334204279E+00    3.1305183131878774E+01
HW    7.2693723415622791E-01    7.1476781191369270E+00    3.2694977890042836E+01
OW    2.2829422244762538E+00    2.8616972795475988E+00    3.0222845992128388E+01
HW    2.1562435601405023E+00    2.3268260276942039E+00    2.9351614182827287E+01
HW    2.5902286460792738E+00    3.5922833689036660E+00    2.9646186672982605E+01
OW    3.0094705501068617E+00    7.8722585017878099E+00    3.3647347995903822E+01
HW    2.2087793836718781E+00    8.4174327844549541E+00    3.3842878908848348E+01
HW    3.4466808396460031E+00    7.9873572411965545E+00    3.4499459578341742E+01
OW    5.4484179511963511E+00   -1.0319267419342126E+00    3.2368156204022000E+01
HW    5.1929233264860448E+00   -1.0368711415544720E+00    3.3318246575622865E+01
HW    6.1904837091473555E+00   -4.0121222225466530E-01    3.2291202294600048E+01
OW    1.7640427837743474E+01    2.9568007342431701E+00    4.2335224369179471E+01
HW    1.7634096325493420E+01    3.9921293727046625E+00    4.2337460460478290E+01
HW    1.6752125068933406E+01    2.8496978560579858E+00    4.2675034139274722E+01
OW   -9.6890524585217552E-01    1.0983766417634097E+01    3.2892834023704594E+01
HW   -6.1276705610849080E-01    1.1826918745812351E+01    3.2540994137404226E+01
HW   -1.8561958726072825E+00    1.0934522447714901E+01    3.2487276245132747E+01
OW    4.5972235122547183E+00    1.9800606847568194E+00    3.1632108367744660E+01
HW    4.2888831826628415E+00    1.3608613183318086E+00    3.2338082346051451E+01
HW    3.6848242136147076E+00    2.2360442750242386E+00    3.1264562090813385E+01
OW    3.8625766923095978E-01    1.5196196743542094E+00    3.6403569784438375E+01
HW    4.0749703545475691E-01    2.2446487542024043E+00    3.7093044510476979E+01
HW    9.5056167864320373E-01    7.6772725565342881E-01    3.6764530038062695E+01
OW    1.4631795844736859E+01    1.1219524721291856E+01    4.3263561086572011E+01
HW    1.4180916763479781E+01    1.1331409493077169E+01    4.2396422050581151E+01
HW    1.4101161413923363E+01    1.0497957558196763E+01    4.3631975427696524E+01
OW    7.9237126148854173E+00    3.6702174080443366E+00    3.7994176162159022E+01
HW    8.9152207088085387E+00    3.5207881519645152E+00    3.8005236177510703E+01
HW    7.8516441596573383E+00    4.6152008888134661E+00    3.7692816828889462E+01
OW    4.0024627651325995E+00    5.6076097730303118E+00    3.7741175229974758E+01
HW    4.3056895538192501E+00    5.9657862587357613E+00    3.8616456417730646E+01
HW    3.8891470867034106E+00    4.6316157686689357E+00    3.7831935014056029E+01
OW    1.3587299557905077E+01    8.5843085960512990E+00    4.3541790004140914E+01
HW    1.3008973350896252E+01    8.8128515084845827E+00    4.2741125508226844E+01
HW    1.3165594143540398E+01    7.7804963083327054E+00    4.3859391614308265E+01
OW    4.1718516639027339E+00    8.1273499733307020E+00    3.6512401708138071E+01
HW    4.0629849012349357E+00    7.1668764036379295E+00    3.6706154338269791E+01
HW    5.1152836304117733E+00    8.3619326937458531E+00    3.6550142313028068E+01
OW    1.5333789160714833E+01    7.8244063564604467E+00    3.9591444780573212E+01
HW    1.5391692532953023E+01    7.2871661643013574E+00    3.8790936192796984E+01
HW    1.4529863037000167E+01    7.5810353534217727E+00    4.0073775292752764E+01
OW    1.2484843140803298E+01    6.4228786892207470E+00    4.4930278971451685E+01
HW    1.2329339831798469E+01    6.9771976808800620E+00    4.5740666346270679E+01
HW    1.2163505944435114E+01    5.5439346440425394E+00    4.5168264741043330E+01
OW    1.2674994547136892E+01    2.1540230382202505E+00    4.9047543279751595E+00
HW    1.1930865811182759E+01    1.5229039753809404E+00    5.1574470700642125E+00
HW    1.2447216683392947E+01    2.2051971347322952E+00    3.9700708459161453E+00
OW    1.1977852140778456E+01    4.0054637289244601E+00   -1.3950495067995792E+00
HW    1.1686760369437623E+01    3.1191636013348578E+00   -1.1951339412035773E+00
HW    1.1265453673352697E+01    4.6490335578010171E+00   -1.5337632069896061E+00
OW    1.4207534176675292E+01    3.0651336500277742E+00    4.7078402108341265E+01
HW    1.3899046230197721E+01    3.9871879973787578E+00    4.7275978129784093E+01
HW    1.4769764030566519E+01    3.2281806908444350E+00    4.6325301966786675E+01
OW    1.1992706257004034E+01    5.8270581464868982E+00    3.5214747038807910E+00
HW    1.2230017041324082E+01    5.5424654886477880E+00    2.6140531809043295E+00
HW    1.1337708710086931E+01    6.4955486699292173E+00    3.3327337944754114E+00
OW    2.8346566530341271E+00    1.0075236196815000E+01    3.8410990523412615E+01
HW    2.9672386362649541E+00    9.7765653762685911E+00    3.9292775161100387E+01
HW    3.2130423852867875E+00    9.4158417268970176E+00    3.7806215118725547E+01
OW    1.9405397742306516E+01    6.3281088001191925E+00    4.0190977626037615E+01
HW    2.0013894970895471E+01    5.5273281944682813E+00    4.0330362870942473E+01
HW    1.8773993990390586E+01    6.2476193578616392E+00    4.0901178980575594E+01
OW    8.6857528428593405E+00    6.4319484800164783E+00    3.7283020775126481E+01
HW    8.6002685881172667E+00    5.8715814184194990E+00    3.6458889612412733E+01
HW    9.6450189573953260E+00    6.3939185253163560E+00    3.7475780239390083E+01
OW    1.1883573898404187E+01    4.0311569909642806E+00    5.0476522134208963E+01
HW    1.1971274900309341E+01    4.1818128523251659E+00    5.1422183549129905E+01
HW    1.0965616784714072E+01    4.2102274714215069E+00    5.0398436076852398E+01
OW    1.8523209824650969E+01   -1.3118622550535382E+00    4.2490031213291942E+01
HW    1.9070453554080917E+01   -1.1169577375092477E+00    4.3256211150489690E+01
HW    1.7653749466832764E+01   -8.8758709391242230E-01    4.2667103481706988E+01
OW    1.4002027639926769E+01    4.2202774044310258E+00    4.0851436426480859E+01
HW    1.3545410654132919E+01    3.3504796415360887E+00    4.0975731668449292E+01
HW    1.4470843556307310E+01    4.2051137109935093E+00    4.0017334213818017E+01
     &END COORD
     &VELOCITY
          -1.3372236023241907E-05   -8.3899082336093988E-05    1.1395739139023713E-04
           1.8813651933232131E-05    8.0031014610419530E-05   -4.3625585689357110E-05
           7.0241662831075786E-05   -4.9354659876605386E-05    8.4721211085169489E-05
           2.0026607936962008E-06   -3.0767125527562268E-05    1.3432353290550929E-04
          -2.7541131910739946E-05    1.8184926120388072E-04   -1.6833925265859615E-04
           8.1653003996972457E-05   -1.8053075105383950E-05    3.9907221357555870E-05
           6.9558913759992639E-05    1.4885225638036923E-05    8.1237186865430215E-05
           2.7111074111940965E-05   -1.1464440517173351E-05    1.5851890279313993E-04
          -1.4945114975954953E-04    3.3043328954072968E-05   -7.9374416070592438E-05
           1.5723481140323447E-04    3.7292159214820743E-06    2.5095668861571949E-05
           5.3156526952073509E-06    1.0598189912178578E-05   -4.1627907025615876E-05
          -3.6140004518790183E-06   -7.5207938749187909E-05   -1.7560719370101988E-05
           5.7214416044956920E-05   -9.5612083502068048E-06    1.4817098056154897E-05
           2.1682445182668534E-05    3.8503786662179340E-05    5.8723793550666151E-05
          -7.1535786776494905E-05   -3.8698766568833199E-05   -9.7478391605475753E-05
           3.4004227054971797E-05    9.6335386680396489E-05    2.0902809638478933E-04
          -5.3543084308521677E-05   -2.7251834956402555E-05   -4.4162286881440277E-05
          -3.5392108266251625E-05   -1.0837947289128581E-04    9.8772743205400985E-05
          -3.7752795073817473E-05   -2.9199707396954144E-05    3.2150485742077424E-06
          -9.3883663524114104E-06    6.7306141741228450E-05   -5.0431897351279626E-05
          -3.3210548103631176E-06    2.3900586525230570E-05    9.0640081935150911E-05
          -7.5841136539868957E-08    5.6458806854593941E-05    9.2669678722056480E-05
           2.3051721856828428E-05   -1.2728328350415571E-04   -1.3883313401583846E-04
           2.1109117915076104E-05    1.2600060903625716E-04    4.2827781784051621E-05
          -5.3287980775973995E-04    4.0622579025785955E-05   -2.3687979777732999E-04
           1.0034355698438677E-04    6.5544872843324771E-06    6.0196970844323578E-05
           1.1490558224158821E-04    1.1305309622410691E-04   -1.4350580450122610E-04
          -4.5677046211810139E-05   -4.6433464432577080E-05    2.0906913197649436E-04
           4.4338448889315274E-05    1.0596263040052615E-04   -6.0523974564818619E-05
          -1.1473754904061986E-04   -1.5557259480664985E-04    1.3124495347023222E-04
           3.9788688880509805E-05   -3.3451509164213948E-04   -4.2868618522286208E-05
           2.6530024952229595E-05    8.0804764604776379E-05   -1.9716300157687948E-04
           2.3808518093235250E-06    9.6872321517246573E-05   -1.2822582334994192E-04
          -4.6422686293178486E-05   -9.9039155785282757E-05   -8.9950430230470584E-05
          -8.2982250797870074E-05    2.2995022613607591E-04   -7.3021248122011912E-06
          -2.7017201311160441E-04   -3.1546200846179043E-05   -3.6731157130514381E-04
          -2.6124689192218102E-05    6.9272471772249405E-06    1.3596872232015908E-05
          -1.5430785068473992E-04   -7.3007495869390024E-05    2.4861033230731472E-04
           1.2132017092115428E-04   -3.4152918713656611E-05    4.1080618772834965E-05
          -1.0792704758303994E-04   -2.4987454240059235E-04   -4.1446097835338286E-04