 # Version information for this restart file 
 # current date 2016-07-15 03:47:50.605
 # current working dir /fs3/e05/e05/gfvr/rcut-fixed-A-3189f38c0b82e789c60773310b94a123/run-2
 # Program compiled at                              Tue Feb  2 22:08:17 GMT 2016
 # Program compiled on                                                eslogin008
 # Program compiled for                                                   ARCHER
 # Source code revision number                                         svn:16458
 &GLOBAL
   PROJECT_NAME hematite
   OUTPUT_FILE_NAME ./out/base
   RUN_TYPE  MD
 &END GLOBAL
 &MOTION
   &MD
     ENSEMBLE  NPT_F
     STEPS  10000
     TIMESTEP     4.9999999999999994E-01
     STEP_START_VAL  670
     TIME_START_VAL     3.3499999999999432E+02
     ECONS_START_VAL    -4.5589206925946146E+03
     TEMPERATURE     3.3000000000000006E+02
     &BAROSTAT
       PRESSURE     1.0129999999999999E+00
       &VELOCITY
            -2.8116706144453458E-06    2.3564558547840947E-07   -6.4286205957262924E-07    2.3564558547840947E-07 \
            -3.1255803950911364E-06   -4.2494530520278246E-07   -6.4286205957262924E-07   -4.2494530520278246E-07    1.9170381393751831E-06
       &END VELOCITY
       &MASS
             4.2330639099311793E+08    4.2330639099311793E+08    4.2330639099311793E+08    4.2330639099311793E+08 \
             4.2330639099311793E+08    4.2330639099311793E+08    4.2330639099311793E+08    4.2330639099311793E+08    4.2330639099311793E+08
       &END MASS
       &THERMOSTAT
         TYPE  CSVR
         &CSVR
           TIMECON     9.6755373060191385E-01
           &THERMOSTAT_ENERGY
                 1.0204979254705561E-01
           &END THERMOSTAT_ENERGY
           &RNG_INIT
Wiener process for Thermostat # 1        1 F T F   7.0063169008067094E-01        1886076591.0        2877418844.0        3338246006.0        3885050435.0        3438188769.0        1306575801.0             12345.0             12345.0             12345.0             12345.0             12345.0             12345.0             12345.0             12345.0             12345.0             12345.0             12345.0             12345.0
           &END RNG_INIT
         &END CSVR
       &END THERMOSTAT
     &END BAROSTAT
     &THERMOSTAT
       TYPE  CSVR
       REGION  GLOBAL
       &CSVR
         TIMECON     9.9999999999999982E+00
         &THERMOSTAT_ENERGY
               8.1233998879636382E-01
         &END THERMOSTAT_ENERGY
         &RNG_INIT
Wiener process for Thermostat # 1        1 F T F   1.0493053720272332E+00        1371250683.0         217703147.0        1927652564.0        1079513180.0        1765662869.0        3727941626.0             12345.0             12345.0             12345.0             12345.0             12345.0             12345.0             12345.0             12345.0             12345.0             12345.0             12345.0             12345.0
         &END RNG_INIT
       &END CSVR
     &END THERMOSTAT
     &AVERAGES  T
       &RESTART_AVERAGES
         ITIMES_START  1
         AVECPU     1.2609158697757478E+02
         AVEHUGONIOT     0.0000000000000000E+00
         AVETEMP_BARO     5.9824191308505442E+02
         AVEPOT    -4.5600680530956170E+03
         AVEKIN     3.9656522325625260E-01
         AVETEMP     3.5374362639631551E+02
         AVEKIN_QM     0.0000000000000000E+00
         AVETEMP_QM     0.0000000000000000E+00
         AVEVOL     1.5697427801250407E+04
         AVECELL_A     1.3681241166276031E+01
         AVECELL_B     1.3580959755316332E+01
         AVECELL_C     8.5198063507665125E+01
         AVEALPHA     8.6219435892162736E+01
         AVEBETA     9.4553308731369000E+01
         AVEGAMMA     9.4928641692468702E+01
         AVE_ECONS    -2.5654077298941216E+00
         AVE_PRESS    -1.0010247323877911E+04
         AVE_PXX    -1.6016658434737141E+04
       &END RESTART_AVERAGES
     &END AVERAGES
   &END MD
   &PRINT
     &TRAJECTORY  ON
       FILENAME ./traj/pos
       FORMAT  DCD_ALIGNED_CELL
       &EACH
         MD  1
       &END EACH
     &END TRAJECTORY
     &VELOCITIES  ON
       FILENAME ./traj/vel
       FORMAT  DCD
       &EACH
         MD  1
       &END EACH
     &END VELOCITIES
     &FORCES  ON
       FILENAME ./traj/for
       FORMAT  DCD
       &EACH
         MD  1
       &END EACH
     &END FORCES
     &RESTART  ON
       FILENAME ./restart/base
       &EACH
         MD  5
       &END EACH
     &END RESTART
   &END PRINT
 &END MOTION
 &FORCE_EVAL
   METHOD  QS
   STRESS_TENSOR  ANALYTICAL
   &DFT
     BASIS_SET_FILE_NAME ../input/BASIS_ADMM
     BASIS_SET_FILE_NAME ../input/BASIS_MOLOPT
     POTENTIAL_FILE_NAME ../input/GTH_POTENTIALS
     UKS  T
     CHARGE  0
     &SCF
       MAX_SCF  40
       EPS_SCF     1.0000000000000001E-05
       SCF_GUESS  ATOMIC
       &OT  T
         MINIMIZER  DIIS
         PRECONDITIONER  FULL_SINGLE_INVERSE
       &END OT
       &OUTER_SCF  T
         EPS_SCF     1.0000000000000001E-05
         MAX_SCF  600
       &END OUTER_SCF
     &END SCF
     &AUXILIARY_DENSITY_MATRIX_METHOD
       ADMM_PURIFICATION_METHOD  MO_DIAG
       METHOD  BASIS_PROJECTION
     &END AUXILIARY_DENSITY_MATRIX_METHOD
     &QS
       EPS_DEFAULT     9.9999999999999998E-13
     &END QS
     &MGRID
       CUTOFF     4.0000000000000000E+02
     &END MGRID
     &XC
       DENSITY_CUTOFF     1.0000000000000000E-10
       GRADIENT_CUTOFF     1.0000000000000000E-10
       TAU_CUTOFF     1.0000000000000000E-10
       &XC_FUNCTIONAL  NO_SHORTCUT
         &PBE  T
           SCALE_X     0.0000000000000000E+00
           SCALE_C     1.0000000000000000E+00
         &END PBE
         &XWPBE  T
           SCALE_X    -1.2000000000000000E-01
           SCALE_X0     1.0000000000000000E+00
           OMEGA     1.1000000000000000E-01
         &END XWPBE
       &END XC_FUNCTIONAL
       &HF
         FRACTION     1.2000000000000000E-01
         &SCREENING
           EPS_SCHWARZ     1.0000000000000000E-04
           SCREEN_ON_INITIAL_P  F
         &END SCREENING
         &INTERACTION_POTENTIAL
           POTENTIAL_TYPE  SHORTRANGE
           OMEGA     1.1000000000000000E-01
         &END INTERACTION_POTENTIAL
         &MEMORY
           EPS_STORAGE_SCALING     1.0000000000000001E-01
           MAX_MEMORY  2400
         &END MEMORY
       &END HF
       &VDW_POTENTIAL
         POTENTIAL_TYPE  PAIR_POTENTIAL
         &PAIR_POTENTIAL
           TYPE  DFTD3
           PARAMETER_FILE_NAME ../input/dftd3.dat
           REFERENCE_FUNCTIONAL PBE0
         &END PAIR_POTENTIAL
       &END VDW_POTENTIAL
     &END XC
     &PRINT
     &END PRINT
   &END DFT
   &SUBSYS
     &CELL
       A     7.0634376570040072E+00   -2.3063112443121165E-02   -3.7526884923112978E-02
       B    -5.5780073517802065E-01    6.9711012946094444E+00   -5.1764714135703736E-02
       C    -3.4841992707372298E+00    2.6581824548783057E+00    4.5025452983422170E+01
       PERIODIC  XYZ
       MULTIPLE_UNIT_CELL  1 1 1
       &CELL_REF
         A     7.4100000000000001E+00    0.0000000000000000E+00    0.0000000000000000E+00
         B    -5.6075082412935573E-01    7.3887521621203573E+00    0.0000000000000000E+00
         C    -3.4053693773037792E+00    3.1567202268075030E+00    4.4759787497415424E+01
         MULTIPLE_UNIT_CELL  1 1 1
       &END CELL_REF
     &END CELL
     &COORD
FE1    4.1128843819977989E+00    5.7571678285046524E+00    1.8965743587925541E+01
FE1    9.2575224889019714E-01    2.1465030345463205E+00    1.9095444747360478E+01
FE1    4.0940308395680560E+00    2.4066577679635719E+00    2.3016565226816933E+01
FE2    2.1780527915986853E-02    6.2322354214274531E+00    2.7006925074288532E+01
FE2   -8.5838426815788327E-01    6.9159221532607811E+00    1.6755763382305336E+01
FE2    2.4621968180717797E+00    7.1839385450076012E+00    2.0732733383199477E+01
FE2   -7.9741810479204800E-01    3.7372637893491114E+00    2.0731617330331137E+01
FE2    2.4591055365100876E+00    3.9567766444004433E+00    2.4713283517650670E+01
FE1    2.7239010215856916E+00    6.9375754690644236E+00    1.6548147348055796E+01
FE1   -4.7302466670945292E-01    3.4373238440770897E+00    1.6861435022915785E+01
FE1    2.7563973239400683E+00    3.7065626448320153E+00    2.0785028451980011E+01
FE1    2.8984069333359186E-01    5.9102103014141596E+00    2.2932791149225814E+01
FE1    3.4392445343994402E+00    6.2296406561677493E+00    2.6833853154579074E+01
FE1    3.4185911971765609E-01    2.8758867615612802E+00    2.6860402135384341E+01
FE2    4.3432856995698730E+00    2.1426527510891438E+00    1.9003605139969981E+01
FE2   -1.3180770064171881E+00    7.5578773339881158E+00    2.4738953186744546E+01
FE1   -1.0592364513800472E+00    7.1591708356782942E+00    2.0785902923857940E+01
FE1    2.1176347724671283E+00    7.4167031257332310E+00    2.4610754529723902E+01
FE1   -1.0416565650285088E+00    4.0292349152663816E+00    2.4659852422804711E+01
FE2    5.4543301247862275E-01    5.6305831329332729E+00    1.8983224886739148E+01
FE2    3.8102699580127193E+00    5.9054676834504285E+00    2.2974659759128045E+01
FE2    6.0402555908820776E-01    2.4153966280023633E+00    2.2882110294291525E+01
FE2    3.8867284673845877E+00    2.7993479860130766E+00    2.6923503156764788E+01
FE2    3.0316817444848390E+00    3.6003401972916858E+00    1.6823718271535725E+01
O   -1.8974432013887090E+00    5.8536549260975121E+00    2.7707656268004207E+01
O    9.5554346100876442E-01    7.3195841550715564E+00    1.5828072054903526E+01
O    4.3285748026545718E+00    7.5196929397515753E+00    1.9950826516448480E+01
O    1.0606523197581599E+00    4.0563450199073543E+00    1.9825900800921918E+01
O    4.3451433969511726E+00    4.2983754105592489E+00    2.3923187733316013E+01
O    2.2873721668758412E-01    7.1962770794329591E+00    2.9226523769731958E+01
O   -1.5272153262845543E+00    5.6790890544919748E+00    1.4728025175719202E+01
O    2.2649277230961760E+00    6.2485754998746064E+00    1.8462587003625273E+01
O   -9.6776342647563718E-01    2.8968972674385980E+00    1.8656213604451668E+01
O    2.3244556291201630E+00    3.1468776199583970E+00    2.2613088227122780E+01
O   -7.4986037421720042E-01    7.9942749949112457E+00    2.6517853552218380E+01
O    2.0076302963405084E-03    5.2574599403460427E+00    1.7146693208349561E+01
O    3.2696424841265590E+00    5.4629610807492295E+00    2.1205429181735244E+01
O    1.6642868029657326E-01    1.9798985891002123E+00    2.1041319669797417E+01
O    3.1840927831926265E+00    2.1707874668944496E+00    2.5074576531652777E+01
O    2.5275230024863626E+00    5.1374644532825631E+00    1.5681759206949861E+01
O   -8.2585177593253167E-01    1.5232723241396668E+00    1.5715177704947850E+01
O    2.5672313250546899E+00    1.8481313777227444E+00    1.9996829124638836E+01
O    4.4834567127760261E-01    7.7138571056164107E+00    2.3808321068001426E+01
O    3.8086609333000743E+00    8.1028051295693579E+00    2.7556627789384756E+01
O    5.7307121614440482E-01    4.5836202078500117E+00    2.7913021358378302E+01
O    4.4503914174644743E+00    6.2738332276180779E+00    1.7213143224681790E+01
O    1.3620248099981602E+00    2.8828814298910812E+00    1.7163878795986641E+01
O    4.5396033657602839E+00    3.0139382765853062E+00    2.1145705604820947E+01
O   -1.5137953566666240E+00    6.6166681906292011E+00    2.2598148322372932E+01
O    1.6427425590046310E+00    6.8134467703672339E+00    2.6487822651477416E+01
O   -1.4407898816930884E+00    3.4178132710375033E+00    2.6452065568399128E+01
O    3.4954334891166652E+00    7.4997061103506812E+00    1.4482066058572276E+01
O    4.7282894707783713E-01    4.0362318512464901E+00    1.4673415858453760E+01
O    3.5686384512146083E+00    3.9236059569462167E+00    1.8709853156982774E+01
O   -5.8042621697732633E-01    5.7708008376736446E+00    2.5237877670029636E+01
O    2.8131825257264444E+00    5.8928602024353980E+00    3.0180484145363440E+01
O   -6.1967669089819866E-01    2.0197858382533664E+00    3.0199649774823730E+01
O   -1.2776061504991463E+00    5.3778077313007255E+00    1.9825527861315997E+01
O    1.9890677762541198E+00    5.5758894087280924E+00    2.3755862026207566E+01
O   -1.2541249495255957E+00    2.1181115777578059E+00    2.3829867509785657E+01
O    2.0175274348443715E+00    2.2806214907202000E+00    2.7673807516148166E+01
O    4.7051496939094726E+00    3.6658914956012252E+00    1.5777176820244808E+01
O    7.4369243306860766E-01    6.4532025340376276E+00    2.1138109861310369E+01
O    3.9726783604695171E+00    6.7496946875764028E+00    2.4963324534146537E+01
O    7.2835996973149719E-01    3.3434841055774975E+00    2.4985260163708034E+01
O    4.5792170340156542E+00    3.8665550065502456E+00    2.9153979431796213E+01
O    3.3224216321765341E+00    3.1101207239695432E+00    1.2611617130224664E+01
O   -1.1805616909059784E-01    7.4593431910087071E+00    1.8526437102548080E+01
O    2.9956767718588915E+00    7.6472631408599030E+00    2.2528764501795397E+01
O   -2.4961615210194485E-01    4.1672342670283200E+00    2.2537691729965942E+01
O    3.0942036906166819E+00    4.4527514255322442E+00    2.6562129684646258E+01
O    3.7778914184140873E+00    1.7066177917492491E+00    1.7329365300227913E+01
H    1.6284685485798994E-01    2.5663809852183981E+00    3.0542544949577195E+01
H   -2.6340537312415246E-01    7.6374137863423224E+00    2.9937955732449385E+01
H    3.3338929016599925E+00    6.2798139764993577E+00    2.9461433171782854E+01
H    4.8715689213628472E+00    4.6528201361099244E+00    2.8617910850884694E+01
H    1.5560469471044394E+00    4.4897715318706179E+00    2.7751115089940956E+01
H    4.7631438697086468E+00    8.2573959439682270E+00    2.7592248190802625E+01
H    8.7360487195372538E-01    8.2528282392909880E+00    1.5644558707699996E+01
H    4.7695009022005834E+00    2.7182399554843926E+00    1.5499363708227150E+01
H   -1.8422446571584483E+00    6.2963851642183108E+00    1.4070134760228576E+01
H    1.4039945588280174E+00    4.4924300088382347E+00    1.5073415911046073E+01
H    3.7739323995576548E+00    3.9337908742050445E+00    1.2477525406590631E+01
H    4.4589937593187994E+00    7.8430264830904441E+00    1.4696641788163006E+01
H    5.2471359145351144E+00    3.1576182091611615E+00    2.9359560207155763E+01
H    1.9027808824128709E+00    1.3678439794758896E+00    2.7892444359386822E+01
H   -1.8713313724463381E+00    6.4751499520749620E+00    2.8436258900537855E+01
H    8.8867323159745037E-01    6.6734014443563980E+00    2.9695052434564733E+01
H    3.3387916327210148E+00    5.0565648425378482E+00    3.0278380729310719E+01
H   -1.3588706775241493E+00    2.1481048582748032E+00    3.0868149027593713E+01
H    5.7593284266215995E-02    1.8570300805680167E+00    1.5381028121091308E+01
H    3.0574847610430211E+00    5.1031268715425515E+00    1.4878792095729855E+01
H    2.4282316380865039E+00    3.2217093474146945E+00    1.2224721213102663E+01
H   -2.1727132210215458E+00    4.9644813532752865E+00    1.5097514696011400E+01
H   -2.0751556448247852E-01    4.7412528982337259E+00    1.4555501733394662E+01
H    3.2398206004573482E+00    8.1155257051322138E+00    1.3784784702065705E+01
OW    1.2890314629691289E+01    5.1204268619584115E+00    1.0600150027705124E+00
HW    1.2497932006784312E+01    4.4609273397385190E+00    4.6072269152287554E-01
HW    1.3826904183900270E+01    5.0462765807587884E+00    1.0301011015826798E+00
OW    7.5943967017663294E-01    2.6240772276637068E+00    1.2363457017120631E+01
HW    6.7273776508827376E-01    3.1749768897811927E+00    1.3218785492579270E+01
HW   -2.0021087697264094E-02    2.7862144686300834E+00    1.1847142828438544E+01
OW    4.6247127274528923E+00    6.9240442968195151E+00    7.1307785878686163E+00
HW    5.2425852604989291E+00    6.2132705049898940E+00    6.7027025481016498E+00
HW    3.8158443620567821E+00    6.8333208039617332E+00    6.5708412857446348E+00
OW    8.4562044039751871E+00    5.2863892244636448E+00    1.9698952201265048E+00
HW    9.0426372132704760E+00    6.0325595962048260E+00    1.7911834356731415E+00
HW    8.5799158006207534E+00    5.0358581140870342E+00    2.8783382787296508E+00
OW    1.0957132690819695E+00    5.8527765931843730E-02    1.2952466876295105E+01
HW    9.4120712246583471E-01    9.1195210680883931E-01    1.2578046682907951E+01
HW    1.1157780799155699E+00    1.4346577467630978E-01    1.3930484291913064E+01
OW    1.1523315964209275E+00   -1.6581111385786129E+00    8.3396770833063751E+00
HW    1.6257736482979661E+00   -1.5523991272589048E+00    9.1655670824561550E+00
HW    1.7483390118931914E+00   -2.0537620120649294E+00    7.7088981637187750E+00
OW    3.4927562312507643E+00    2.9813533935959753E+00    7.2460116574780331E+00
HW    4.3071007378349675E+00    2.9332162322485229E+00    7.8139881335103691E+00
HW    2.7780409106276589E+00    2.3616950163959443E+00    7.4719022441047045E+00
OW    8.6464682405643831E+00    9.3989288808356353E+00    3.3348880027499530E+00
HW    8.4696684621965268E+00    9.0690039495708810E+00    4.2711208883242646E+00
HW    9.2177385401428484E+00    1.0145748883759914E+01    3.6350399591690477E+00
OW    3.0878056815193626E+00    4.3619593157010534E+00    4.9034599828870409E+00
HW    3.9095803140467327E+00    4.7138136208825880E+00    4.5231063934385611E+00
HW    3.3727647068034536E+00    3.9448209460285732E+00    5.7072674150930407E+00
OW    5.6107223502776620E+00    3.3153138733508145E+00    1.1188441783906507E+01
HW    4.6799726838031734E+00    3.0083413516163686E+00    1.1197521730836577E+01
HW    5.8842353709926156E+00    3.2300104551029523E+00    1.0258564218728152E+01
OW    1.9389172996559623E+00    9.0823131309179193E+00    9.9137167475014500E+00
HW    1.5380760462499232E+00    9.1173205586902437E+00    1.0769457804894802E+01
HW    2.6637474539631834E+00    8.4329625247454292E+00    9.9969784726489674E+00
OW    3.7463193853213164E+00    7.0377450369727867E+00    9.7096970117365196E+00
HW    4.3888476577858011E+00    6.8538872455649633E+00    1.0450423537441994E+01
HW    4.1394891530224749E+00    6.8086831263090524E+00    8.8335429612154144E+00
OW    6.7408499657362739E+00   -1.7850071118126249E+00    5.8168188472862594E+00
HW    6.4427550893649697E+00   -1.5085045195344891E+00    4.9603680748733927E+00
HW    6.4577574391750003E+00   -2.6807108962927519E+00    5.6592835186889312E+00
OW    5.2426835667197675E+00    5.9058990638300752E+00    1.2006284274785283E+01
HW    5.5209526610709982E+00    4.9923386707815993E+00    1.1789675263591956E+01
HW    6.1161683068060260E+00    6.3200505144480719E+00    1.2315775413371542E+01
OW    8.1811207684425225E-01    1.1459073098509043E+00    8.3511397356565737E+00
HW    9.7236831704297200E-01    1.5386569047672174E-01    8.3057256621231108E+00
HW    1.5808010092716118E+00    1.4596248701241288E+00    8.9808936400799446E+00
OW    5.8305399607099755E+00    3.1945680307848630E+00    8.5427740026376853E+00
HW    6.3643034361280684E+00    2.4134708953776505E+00    8.3849356439776876E+00
HW    6.3140731542362962E+00    4.1027450454748875E+00    8.5446858821042255E+00
OW    9.4345946055009247E+00    6.9038065092473442E+00    5.2352604599770540E+00
HW    8.5176961676947673E+00    7.2677971694895733E+00    5.4026571875092140E+00
HW    9.3440872856643296E+00    5.9413746694834222E+00    5.1265940773497567E+00
OW    1.9738764068479588E+00    5.0899427916534794E+00    1.0550577332411921E+01
HW    1.6459318186488585E+00    5.8125590652386308E+00    1.1194560145133844E+01
HW    2.8455878455698560E+00    5.4945199984512652E+00    1.0338704239847887E+01
OW    2.8712935632993766E+00    3.8399676621415857E+00    3.3731861732001832E+01
HW    3.4802505521356264E+00    4.1841564349931541E+00    3.3060427400470516E+01
HW    3.1258865371721511E+00    2.9277088638206510E+00    3.4022881897963337E+01
OW   -1.3607769939819240E+01    1.1879265577633932E+01    3.5593009253216835E+01
HW   -1.4508931617725567E+01    1.1684554108570913E+01    3.5309021974481020E+01
HW   -1.2930212625421056E+01    1.1514254621185572E+01    3.4959021619013242E+01
OW    6.6669715252509054E-01    1.4241660364613704E+00    3.4040146070490231E+01
HW   -1.3259824682261279E-01    1.8494414877188661E+00    3.3632528472113528E+01
HW    4.3361354789388351E-01    1.3787172967101529E+00    3.5012287485258291E+01
OW    1.9244129641145225E+01    8.8066900986154835E+00    4.1215773254854582E+01
HW    1.8360832967855352E+01    9.1528220757723062E+00    4.1480054555273199E+01
HW    1.9134440894972830E+01    7.9083805245589716E+00    4.0798421035930446E+01
OW    9.6662353030448567E-01    6.5728896601793236E+00    3.2140813857470100E+01
HW    1.8042161595075714E+00    6.1328082982474363E+00    3.2245881968903042E+01
HW    7.8472469203869588E-01    7.1082101113034089E+00    3.2931530341397035E+01
OW    1.8340527394267121E+00    3.0992687301970312E+00    3.0338299761057964E+01
HW    2.2105530994357516E+00    2.9963891097637738E+00    2.9430058977513401E+01
HW    1.5722495863975845E+00    3.9930935703467436E+00    3.0572211334029930E+01
OW    3.1256001654139354E+00    8.0751659556586066E+00    3.4126812032735572E+01
HW    2.2780891302988997E+00    7.6720843369806611E+00    3.4314921035693061E+01
HW    3.6973781941142492E+00    8.0138160165467625E+00    3.4926537589665394E+01
OW    5.5328998399663218E+00   -1.0018853883467860E+00    3.2361395768479312E+01
HW    4.9144525893405104E+00   -5.6899914411780173E-01    3.1764373294595334E+01
HW    6.2944463375814292E+00   -4.2586937237299016E-01    3.2212423735440751E+01
OW    1.7630510659721065E+01    2.9772969015482644E+00    4.2506043170646777E+01
HW    1.7737827715278982E+01    3.8917421148982014E+00    4.2612059551606905E+01
HW    1.6693393664105756E+01    2.8362530806642310E+00    4.2789683449964421E+01
OW   -8.9921593778999742E-01    1.0783702196970907E+01    3.3341129772272552E+01
HW   -3.3972159137384381E-03    1.1035183296710732E+01    3.2932390241719830E+01
HW   -1.5474907505814501E+00    1.1314019913235555E+01    3.2803914988366579E+01
OW    4.2674920806420484E+00    2.3263918711639939E+00    3.1677759377795468E+01
HW    3.9618781389004378E+00    1.7336567777159253E+00    3.2404937799356503E+01
HW    3.5044655679725643E+00    2.5348166207664584E+00    3.1144220158548411E+01
OW    6.5077707846640673E-02    1.4134258918781064E+00    3.6728257954085407E+01
HW   -7.2260194668409749E-03    2.2183104186580547E+00    3.7296721965646995E+01
HW    7.3356911011575276E-01    7.8140044347046322E-01    3.7176666484064746E+01
OW    1.4247533569914335E+01    1.0817076968104720E+01    4.3216593136381491E+01
HW    1.3841406147686053E+01    1.0999972108157545E+01    4.2310117756139242E+01
HW    1.4090942700740227E+01    9.8781090765832484E+00    4.3460495494386500E+01
OW    7.7428052684879631E+00    3.5216550766287442E+00    3.8224091395177396E+01
HW    8.6062780544160091E+00    3.1130363022394323E+00    3.7990672325564475E+01
HW    7.7817314755333253E+00    4.4521427133567748E+00    3.7985874388901628E+01
OW    3.6221277601097999E+00    5.7227226201599501E+00    3.8252300178758567E+01
HW    4.1421204106186442E+00    6.0511922109702407E+00    3.9025552823489683E+01
HW    3.7969532369495127E+00    4.7864017133964483E+00    3.8206820433031460E+01
OW    1.3575532485308964E+01    8.0297253931197208E+00    4.3227262655633901E+01
HW    1.2884733002586691E+01    8.3298992337607114E+00    4.2516168184853413E+01
HW    1.2990870439234195E+01    7.5354951819513714E+00    4.3896556291639371E+01
OW    4.0686796398226681E+00    7.8192743690135309E+00    3.6673103085152619E+01
HW    3.8314320366745198E+00    6.9048874678490444E+00    3.7046285540436621E+01
HW    5.0703335565404890E+00    7.8900668449755926E+00    3.6556041202675907E+01
OW    1.4992278029265870E+01    8.0251043810370231E+00    3.9999331684856209E+01
HW    1.4585841723131074E+01    7.3751806027655755E+00    3.9366529204839161E+01
HW    1.4919788208457231E+01    7.6016606611476840E+00    4.0878163409545799E+01
OW    1.2442810517614323E+01    6.0055897399861546E+00    4.4969982904112548E+01
HW    1.2344436213052253E+01    6.3033215099079696E+00    4.5902777735666014E+01
HW    1.2688863662387821E+01    5.0857521963985706E+00    4.5109929244245670E+01
OW    1.2515178845531160E+01    2.2869468956647672E+00    4.7560080663939699E+00
HW    1.1907865093268443E+01    1.9366311104098528E+00    5.4438423547232864E+00
HW    1.2305938063103172E+01    1.6964818677296480E+00    4.0273141058792943E+00
OW    1.2143917838521851E+01    3.8741739460782587E+00   -1.3041737763781256E+00
HW    1.1779710464840296E+01    2.9881574872443837E+00   -1.4406965245763215E+00
HW    1.1495662663827529E+01    4.4781015814971887E+00   -1.7652231442074642E+00
OW    1.4193124846158119E+01    3.2017012206997584E+00    4.6979238620489369E+01
HW    1.3769846308253937E+01    3.9583047247707102E+00    4.7466206917580685E+01
HW    1.4837104197568149E+01    3.4900031644178431E+00    4.6347552997584330E+01
OW    1.1896277919281651E+01    5.9842557922810000E+00    3.4674898344599523E+00
HW    1.2095027669926552E+01    5.6638904612854581E+00    2.5106453985756763E+00
HW    1.1155940974404203E+01    6.6182180549565519E+00    3.2762447529890442E+00
OW    2.6068859090822514E+00    9.6376963835504874E+00    3.7985072192402441E+01
HW    2.3402682181113796E+00    8.9794953945054061E+00    3.8694536978166454E+01
HW    3.0932341461864752E+00    9.0773110412144149E+00    3.7369028172901508E+01
OW    1.9138141817336106E+01    6.0856258206028855E+00    4.0401609026568202E+01
HW    1.9959650426159019E+01    5.5424336980717159E+00    4.0384632056721657E+01
HW    1.8803955027636135E+01    5.7589508482077871E+00    4.1312295789231122E+01
OW    8.1722841747697785E+00    6.5154670556761083E+00    3.7426020787763861E+01
HW    8.2763790591813091E+00    5.8016031502039915E+00    3.6704846567095778E+01
HW    8.9352180678499487E+00    6.3151005008024850E+00    3.7986204586005385E+01
OW    1.1599129303726576E+01    4.3211938495904301E+00    5.0702580967861195E+01
HW    1.1615892747516886E+01    4.0137319463264376E+00    5.1647106240895695E+01
HW    1.0692843380423835E+01    4.4117089206164639E+00    5.0424505233133644E+01
OW    1.8785518156860036E+01   -1.3537836462730133E+00    4.2738683728236637E+01
HW    1.9323831649080191E+01   -1.1212840407350417E+00    4.3489792687175580E+01
HW    1.7879803795376453E+01   -9.3686259736976629E-01    4.2908167886379211E+01
OW    1.3875177246670166E+01    4.2776069801059924E+00    4.0684058638281101E+01
HW    1.3269758058499862E+01    3.5187000631500731E+00    4.0838752075296171E+01
HW    1.4535765841309658E+01    3.7990831228573270E+00    4.0137670707513493E+01
     &END COORD
     &VELOCITY
          -1.2242064342962255E-05   -4.8794631733602246E-05    5.0051454795424891E-05
           6.6845415694923187E-05   -3.7528341716664551E-05   -2.2860728493693238E-06
           3.3709737202791127E-05   -7.8993040282993135E-05   -1.3120332808961567E-05
          -4.5233432329063613E-05    1.7705012040846365E-06    5.6113908631170660E-05
           1.3279630296548147E-04    5.5146755586575482E-05   -5.5854726155579864E-05
           2.3909957592754404E-05   -4.8079032181906105E-05   -4.3479758355938622E-05
          -2.1094411173345939E-05   -3.0832712938633940E-06   -2.4668946227568008E-05
          -5.1869735973285571E-05   -4.7787998734770160E-05   -7.5989366683766144E-06
           6.2751933625838203E-05    3.2381909847683191E-06   -1.4307636786387270E-04
          -1.2348218128756965E-04   -9.3361142267970058E-05   -6.4946110045327300E-05
          -3.5837759344453848E-05    2.9602909562282943E-05   -4.0917868604859589E-05
          -2.8647839428506958E-05    4.9249423815571787E-06   -3.1042704373028015E-05
           2.4396340860697989E-05    5.0826896701810668E-05    5.2032309279574986E-05
          -8.6151691941827033E-05    2.5652486826580795E-05   -3.7517163332739539E-05
          -4.4722157484805222E-05    2.3432442321115694E-05    1.2561494223702201E-05
           3.9918152944624528E-05   -3.6924696959752173E-05   -2.4423269716873720E-05
           2.1001496604771595E-05    3.8552600614041723E-05    4.9637467993343262E-05
           9.2122416197944621E-05    4.5740091862222309E-05    3.3184171985721759E-05
           6.9845436953564958E-05   -5.0296382584659009E-05    9.0521845163290369E-05
           8.0976117570257883E-05    1.3598865801956985E-05    3.9135275785947770E-06
           8.9738674440325013E-06   -5.7318731082912391E-05   -2.9356983531085105E-05
          -6.6806219312072514E-05   -1.6681037366164343E-05   -1.1452984705813781E-04
           1.1943870457663567E-05    5.0599020148905352E-05    1.5619063169059209E-04
          -1.7300912059159266E-05   -3.8940141505991173E-05    6.0783629732739783E-06
          -1.7092177766571274E-04   -1.4618381198876468E-05   -8.7164307035746133E-05
           1.7132658816426010E-04   -7.3770618225892747E-06    1.6715008985206359E-04
          -8.9881948648360999E-05    1.4073522023072614E-05   -9.4617467547923506E-05
           1.4196193586021851E-05    1.8342031530181981E-04    5.2466434945278716E-05
           1.9163998171971370E-04   -1.4338395753939206E-05   -1.5224155714398670E-05
           5.4417058017388193E-05    3.8539314018699416E-04    4.6482126428113739E-05
           4.0140504577416313E-05    4.2978118967473806E-04    2.6250427173293996E-04
          -3.0989836247136246E-04    1.0593169075870563E-04    3.8284574711705234E-04
           9.2453681375420635E-05    3.2938077541552931E-04    1.3258609854023673E-04
           3.4521927495087267E-05   -6.6348031039730203E-05   -5.8946762974397319E-05
          -4.2670631174778905E-04   -8.9641977681998475E-05   -2.5148272715448677E-04
           4.8300387811139520E-05    2.0406999751017212E-04   -3.2248507242046834E-05
          -2.2522884677648479E-04    2.4789783611519175E-05   -1.9261550301102996E-05
           2.2702805445561169E-05   -7.9091890504154295E-05   -8.3650554633050303E-05
           9.3973120143881243E-05    7.6365382842196657E-05    4.5394266429262854E-04
           2.4470260511309256E-05    2.6784775433458182E-04    2.1015587466253208E-04