 # Version information for this restart file 
 # current date 2016-07-15 03:58:16.826
 # current working dir /fs3/e05/e05/gfvr/rcut-fixed-A-3189f38c0b82e789c60773310b94a123/run-2
 # Program compiled at                              Tue Feb  2 22:08:17 GMT 2016
 # Program compiled on                                                eslogin008
 # Program compiled for                                                   ARCHER
 # Source code revision number                                         svn:16458
 &GLOBAL
   PROJECT_NAME hematite
   OUTPUT_FILE_NAME ./out/base
   RUN_TYPE  MD
 &END GLOBAL
 &MOTION
   &MD
     ENSEMBLE  NPT_F
     STEPS  10000
     TIMESTEP     4.9999999999999994E-01
     STEP_START_VAL  675
     TIME_START_VAL     3.3749999999999420E+02
     ECONS_START_VAL    -4.5589206925946146E+03
     TEMPERATURE     3.3000000000000006E+02
     &BAROSTAT
       PRESSURE     1.0129999999999999E+00
       &VELOCITY
            -2.7572164497778163E-06    1.7106073975305690E-07   -5.7948157226686364E-07    1.7106073975305690E-07 \
            -3.0587151778496341E-06   -4.3240121863141717E-07   -5.7948157226686364E-07   -4.3240121863141717E-07    1.9148804169907632E-06
       &END VELOCITY
       &MASS
             4.2330639099311793E+08    4.2330639099311793E+08    4.2330639099311793E+08    4.2330639099311793E+08 \
             4.2330639099311793E+08    4.2330639099311793E+08    4.2330639099311793E+08    4.2330639099311793E+08    4.2330639099311793E+08
       &END MASS
       &THERMOSTAT
         TYPE  CSVR
         &CSVR
           TIMECON     9.6755373060191385E-01
           &THERMOSTAT_ENERGY
                 1.0221883858156033E-01
           &END THERMOSTAT_ENERGY
           &RNG_INIT
Wiener process for Thermostat # 1        1 F T F  -1.0822375509669664E+00        3556346210.0        2010194974.0        3873823081.0        1262047977.0        1462040881.0        3701105822.0             12345.0             12345.0             12345.0             12345.0             12345.0             12345.0             12345.0             12345.0             12345.0             12345.0             12345.0             12345.0
           &END RNG_INIT
         &END CSVR
       &END THERMOSTAT
     &END BAROSTAT
     &THERMOSTAT
       TYPE  CSVR
       REGION  GLOBAL
       &CSVR
         TIMECON     9.9999999999999982E+00
         &THERMOSTAT_ENERGY
               8.0403237048657172E-01
         &END THERMOSTAT_ENERGY
         &RNG_INIT
Wiener process for Thermostat # 1        1 F T F  -5.3298463739839608E-01        2725040280.0        1508151681.0        1498808825.0        4014285035.0        4177728242.0        1291222217.0             12345.0             12345.0             12345.0             12345.0             12345.0             12345.0             12345.0             12345.0             12345.0             12345.0             12345.0             12345.0
         &END RNG_INIT
       &END CSVR
     &END THERMOSTAT
     &AVERAGES  T
       &RESTART_AVERAGES
         ITIMES_START  1
         AVECPU     1.2608530513487702E+02
         AVEHUGONIOT     0.0000000000000000E+00
         AVETEMP_BARO     5.9632547575761748E+02
         AVEPOT    -4.5600687458594184E+03
         AVEKIN     3.9604806244554974E-01
         AVETEMP     3.5328230924120555E+02
         AVEKIN_QM     0.0000000000000000E+00
         AVETEMP_QM     0.0000000000000000E+00
         AVEVOL     1.5691925044413872E+04
         AVECELL_A     1.3678757233810133E+01
         AVECELL_B     1.3578236942369530E+01
         AVECELL_C     8.5200285322418566E+01
         AVEALPHA     8.6223117963495241E+01
         AVEBETA     9.4554655988194583E+01
         AVEGAMMA     9.4927377626431081E+01
         AVE_ECONS    -2.5559856479609881E+00
         AVE_PRESS    -9.9263826551648963E+03
         AVE_PXX    -1.5891196277992856E+04
       &END RESTART_AVERAGES
     &END AVERAGES
   &END MD
   &PRINT
     &TRAJECTORY  ON
       FILENAME ./traj/pos
       FORMAT  DCD_ALIGNED_CELL
       &EACH
         MD  1
       &END EACH
     &END TRAJECTORY
     &VELOCITIES  ON
       FILENAME ./traj/vel
       FORMAT  DCD
       &EACH
         MD  1
       &END EACH
     &END VELOCITIES
     &FORCES  ON
       FILENAME ./traj/for
       FORMAT  DCD
       &EACH
         MD  1
       &END EACH
     &END FORCES
     &RESTART  ON
       FILENAME ./restart/base
       &EACH
         MD  5
       &END EACH
     &END RESTART
   &END PRINT
 &END MOTION
 &FORCE_EVAL
   METHOD  QS
   STRESS_TENSOR  ANALYTICAL
   &DFT
     BASIS_SET_FILE_NAME ../input/BASIS_ADMM
     BASIS_SET_FILE_NAME ../input/BASIS_MOLOPT
     POTENTIAL_FILE_NAME ../input/GTH_POTENTIALS
     UKS  T
     CHARGE  0
     &SCF
       MAX_SCF  40
       EPS_SCF     1.0000000000000001E-05
       SCF_GUESS  ATOMIC
       &OT  T
         MINIMIZER  DIIS
         PRECONDITIONER  FULL_SINGLE_INVERSE
       &END OT
       &OUTER_SCF  T
         EPS_SCF     1.0000000000000001E-05
         MAX_SCF  600
       &END OUTER_SCF
     &END SCF
     &AUXILIARY_DENSITY_MATRIX_METHOD
       ADMM_PURIFICATION_METHOD  MO_DIAG
       METHOD  BASIS_PROJECTION
     &END AUXILIARY_DENSITY_MATRIX_METHOD
     &QS
       EPS_DEFAULT     9.9999999999999998E-13
     &END QS
     &MGRID
       CUTOFF     4.0000000000000000E+02
     &END MGRID
     &XC
       DENSITY_CUTOFF     1.0000000000000000E-10
       GRADIENT_CUTOFF     1.0000000000000000E-10
       TAU_CUTOFF     1.0000000000000000E-10
       &XC_FUNCTIONAL  NO_SHORTCUT
         &PBE  T
           SCALE_X     0.0000000000000000E+00
           SCALE_C     1.0000000000000000E+00
         &END PBE
         &XWPBE  T
           SCALE_X    -1.2000000000000000E-01
           SCALE_X0     1.0000000000000000E+00
           OMEGA     1.1000000000000000E-01
         &END XWPBE
       &END XC_FUNCTIONAL
       &HF
         FRACTION     1.2000000000000000E-01
         &SCREENING
           EPS_SCHWARZ     1.0000000000000000E-04
           SCREEN_ON_INITIAL_P  F
         &END SCREENING
         &INTERACTION_POTENTIAL
           POTENTIAL_TYPE  SHORTRANGE
           OMEGA     1.1000000000000000E-01
         &END INTERACTION_POTENTIAL
         &MEMORY
           EPS_STORAGE_SCALING     1.0000000000000001E-01
           MAX_MEMORY  2400
         &END MEMORY
       &END HF
       &VDW_POTENTIAL
         POTENTIAL_TYPE  PAIR_POTENTIAL
         &PAIR_POTENTIAL
           TYPE  DFTD3
           PARAMETER_FILE_NAME ../input/dftd3.dat
           REFERENCE_FUNCTIONAL PBE0
         &END PAIR_POTENTIAL
       &END VDW_POTENTIAL
     &END XC
     &PRINT
     &END PRINT
   &END DFT
   &SUBSYS
     &CELL
       A     7.0613907207304472E+00   -2.2905156408236354E-02   -3.7980640965457696E-02
       B    -5.5748871833621094E-01    6.9688550798657491E+00   -5.2049331145364176E-02
       C    -3.4859838891249177E+00    2.6552562679382929E+00    4.5034527535089488E+01
       PERIODIC  XYZ
       MULTIPLE_UNIT_CELL  1 1 1
       &CELL_REF
         A     7.4100000000000001E+00    0.0000000000000000E+00    0.0000000000000000E+00
         B    -5.6075082412935573E-01    7.3887521621203573E+00    0.0000000000000000E+00
         C    -3.4053693773037792E+00    3.1567202268075030E+00    4.4759787497415424E+01
         MULTIPLE_UNIT_CELL  1 1 1
       &END CELL_REF
     &END CELL
     &COORD
FE1    4.1096122685417171E+00    5.7516760776072244E+00    1.8971897891983343E+01
FE1    9.2816948054490933E-01    2.1433887707473969E+00    1.9098818666876657E+01
FE1    4.0937295345924776E+00    2.4008967375944916E+00    2.3020091977628226E+01
FE2    1.7224231323928176E-02    6.2293685304950053E+00    2.7015009018549492E+01
FE2   -8.5174325375709092E-01    6.9152987057109980E+00    1.6756214843634375E+01
FE2    2.4616748051020894E+00    7.1778695624396915E+00    2.0734084565258360E+01
FE2   -7.9967485651573078E-01    3.7348027296105375E+00    2.0734199022972241E+01
FE2    2.4541675905380105E+00    3.9518943580538877E+00    2.4717486265677650E+01
FE1    2.7256776015186097E+00    6.9353516847408692E+00    1.6544204388829030E+01
FE1   -4.8056706541274197E-01    3.4309844078469927E+00    1.6861308891337099E+01
FE1    2.7520991793858927E+00    3.7062176528164521E+00    2.0786347759716254E+01
FE1    2.8706190590502512E-01    5.9077368022088912E+00    2.2935558070336885E+01
FE1    3.4380478445067881E+00    6.2297904171733878E+00    2.6840704201202257E+01
FE1    3.3504416809664933E-01    2.8745452229886941E+00    2.6863624363586201E+01
FE2    4.3386559740707620E+00    2.1425183247826354E+00    1.9008347998261399E+01
FE2   -1.3170784970835676E+00    7.5518153808069508E+00    2.4742457239352639E+01
FE1   -1.0591927776593881E+00    7.1581666504821957E+00    2.0792806411467737E+01
FE1    2.1207657064906043E+00    7.4154939448942230E+00    2.4617598667425604E+01
FE1   -1.0390685217374283E+00    4.0240344245098276E+00    2.4669933168101522E+01
FE2    5.4875547767352983E-01    5.6288211481204486E+00    1.8986600212317530E+01
FE2    3.8088249503965832E+00    5.8994942506186989E+00    2.2977580771097394E+01
FE2    5.9865163164704083E-01    2.4126143477690714E+00    2.2880562611719331E+01
FE2    3.8845240734297826E+00    2.8003680310860535E+00    2.6936987135037302E+01
FE2    3.0289946195676376E+00    3.5958270119830238E+00    1.6828510456327692E+01
O   -1.9084321187288191E+00    5.8487587310860825E+00    2.7708543676369093E+01
O    9.6327848983328956E-01    7.3135273485548558E+00    1.5839324884224546E+01
O    4.3202124909108637E+00    7.5174537901150362E+00    1.9947671677654878E+01
O    1.0606175194337915E+00    4.0630450024637392E+00    1.9833301187913868E+01
O    4.3507283771636880E+00    4.2951115568406282E+00    2.3925245906700383E+01
O    2.3187064866700516E-01    7.2113684619864129E+00    2.9233819272450685E+01
O   -1.5234788165361071E+00    5.6996870451971020E+00    1.4748021246032009E+01
O    2.2461715555042181E+00    6.2524621460293934E+00    1.8487161390219992E+01
O   -9.6322363618086182E-01    2.9122968017750273E+00    1.8666372240083714E+01
O    2.3235252388716860E+00    3.1409140874013519E+00    2.2614096329078262E+01
O   -7.7498885128206396E-01    7.9871123791289991E+00    2.6509579461784316E+01
O    2.1010875323047009E-03    5.2641654294546285E+00    1.7148701220435015E+01
O    3.2551679998363947E+00    5.4607396798418399E+00    2.1206383861588336E+01
O    1.6490865354260681E-01    1.9734949084279205E+00    2.1041586965671556E+01
O    3.1879447985758116E+00    2.1744457069858671E+00    2.5104193924525422E+01
O    2.5262093852767951E+00    5.1484496126510555E+00    1.5695091020279786E+01
O   -8.3118639502117198E-01    1.5158514792041311E+00    1.5717094135688690E+01
O    2.5592351164233245E+00    1.8526257257483869E+00    2.0005770646591454E+01
O    4.5107599730997949E-01    7.7164453950526495E+00    2.3823632054612009E+01
O    3.8164311428717967E+00    8.0950231954215734E+00    2.7572548636835425E+01
O    5.7034565496086453E-01    4.5845860188138126E+00    2.7913683794477667E+01
O    4.4372458763895031E+00    6.2835685786545721E+00    1.7212191994405995E+01
O    1.3463047208273451E+00    2.8785918245594537E+00    1.7181433941531797E+01
O    4.5406294189138494E+00    3.0198166934285702E+00    2.1142435464168173E+01
O   -1.5093684066057849E+00    6.6173812119593425E+00    2.2609187484549157E+01
O    1.6641388726435469E+00    6.8053617855283015E+00    2.6485299044232065E+01
O   -1.4364020069518835E+00    3.4110842619186181E+00    2.6473084709383855E+01
O    3.4954637417923129E+00    7.4948464508682839E+00    1.4467130735425799E+01
O    4.6802567929521932E-01    4.0528093986729097E+00    1.4662554826464037E+01
O    3.5752823560742479E+00    3.9252080719056113E+00    1.8710850479403462E+01
O   -5.8774044265832548E-01    5.7530972162749485E+00    2.5238847590349259E+01
O    2.8148304135517259E+00    5.8794901840242364E+00    3.0182208766320258E+01
O   -6.2441422554415893E-01    2.0258200092035454E+00    3.0214288834467514E+01
O   -1.2811955938271127E+00    5.3784471891591572E+00    1.9817592480086880E+01
O    1.9956826510111192E+00    5.5744895369604119E+00    2.3768003525285330E+01
O   -1.2461204689055334E+00    2.1163728948898508E+00    2.3832604157385958E+01
O    2.0114949730589631E+00    2.2741738411186541E+00    2.7684278383908321E+01
O    4.6937179902592066E+00    3.6637961044373384E+00    1.5786050818414479E+01
O    7.5243142166052324E-01    6.4493902263305216E+00    2.1148400515125740E+01
O    3.9477208706231015E+00    6.7555390882567750E+00    2.4973160247079690E+01
O    7.1570311421229715E-01    3.3417377883806094E+00    2.4985263620606460E+01
O    4.5720378266275468E+00    3.8564917276948121E+00    2.9147209240729829E+01
O    3.3110590706111580E+00    3.1135670375883531E+00    1.2606199622926002E+01
O   -1.2174392738535000E-01    7.4666933178701722E+00    1.8541427518064545E+01
O    2.9962956210688327E+00    7.6427991503655637E+00    2.2542791400026164E+01
O   -2.5068620377297979E-01    4.1654049211092641E+00    2.2544221325382644E+01
O    3.0895489069422486E+00    4.4564586373832293E+00    2.6556636047324719E+01
O    3.7707403201647200E+00    1.7266870916972046E+00    1.7335722025590250E+01
H    1.0117736065472144E-01    2.5200911553875560E+00    3.0589969692706386E+01
H   -3.1549155056266737E-01    7.6653589621001093E+00    2.9916803007174927E+01
H    3.3665872628877307E+00    6.3086371462559097E+00    2.9502194780125038E+01
H    4.8382089160223742E+00    4.5949887699871592E+00    2.8577530159068271E+01
H    1.5485366464485133E+00    4.4825357653670395E+00    2.7777644455720331E+01
H    4.7302121852438406E+00    8.1587927715868709E+00    2.7625442282832140E+01
H    8.8248852472197858E-01    8.2103490912259911E+00    1.5587775488699918E+01
H    4.7262364060207469E+00    2.7457809645875004E+00    1.5405627064950831E+01
H   -1.8286541519645143E+00    6.2834874091546258E+00    1.4075510926366459E+01
H    1.4101567953481180E+00    4.4672441638394877E+00    1.5083739468794709E+01
H    3.7764583247040937E+00    3.9781179273944298E+00    1.2468650477821358E+01
H    4.3712648123999465E+00    7.7273222909887478E+00    1.4728998861272109E+01
H    5.2021434335410879E+00    3.1511414345890527E+00    2.9408593794470445E+01
H    1.8035673399609875E+00    1.3757008630684628E+00    2.8010692273422123E+01
H   -1.8737675058274827E+00    6.4803723289363022E+00    2.8416789517761355E+01
H    8.2643830097360060E-01    6.6080276161885001E+00    2.9751685707728917E+01
H    3.2927813483633566E+00    5.0518326732759036E+00    3.0281038759323550E+01
H   -1.4327910385528961E+00    2.1540586297946787E+00    3.0806316193596217E+01
H    1.2911076036531144E-03    1.8345477393264762E+00    1.5398941782642614E+01
H    3.1065820818848442E+00    5.0982079986159645E+00    1.4927718140838355E+01
H    2.4618244040653128E+00    3.2801301422651217E+00    1.2208823793021217E+01
H   -2.0898674295439288E+00    4.9056597468782250E+00    1.5054906705656533E+01
H   -1.8735342230855001E-01    4.7680581547404319E+00    1.4538576488629960E+01
H    3.2682465099649529E+00    8.1401665915304324E+00    1.3764894910116602E+01
OW    1.2895007004597668E+01    5.1220877256580479E+00    1.0564964645577675E+00
HW    1.2510785966056696E+01    4.4426010279152397E+00    4.2545915950088453E-01
HW    1.3870995341889286E+01    5.0230871563846700E+00    1.0165422313993131E+00
OW    7.7137288952396621E-01    2.6343868392428686E+00    1.2374306758648661E+01
HW    6.1082022769256084E-01    3.0923988874071386E+00    1.3180928723054478E+01
HW   -1.2613664595776087E-02    2.7240735024234279E+00    1.1820850625554279E+01
OW    4.6242885324803593E+00    6.9154334413706229E+00    7.1242270061691428E+00
HW    5.3216111942359667E+00    6.2974720354245228E+00    6.7172651185439998E+00
HW    3.7736580680569567E+00    6.8049918372205429E+00    6.5587022202215994E+00
OW    8.4733477643336403E+00    5.2862256859760377E+00    1.9619170991475541E+00
HW    9.0676824172228319E+00    6.0384944299984031E+00    1.7843278064736106E+00
HW    8.5520793299080644E+00    5.0407034227552527E+00    2.9213108795489955E+00
OW    1.0865757869784323E+00    4.0818305791078903E-02    1.2968126521314256E+01
HW    8.3311782238340859E-01    9.0121740677766327E-01    1.2534869061032540E+01
HW    1.0629990261469524E+00    1.2063834716817814E-01    1.3946308378961668E+01
OW    1.1588115440993441E+00   -1.6522068147417992E+00    8.3529130682776156E+00
HW    1.6595926710717530E+00   -1.6239294650433396E+00    9.1999840876416172E+00
HW    1.8197612583554372E+00   -2.0842183228398139E+00    7.6697436984893068E+00
OW    3.4720885233782601E+00    2.9699615541463160E+00    7.2482830550764907E+00
HW    4.2958540230447193E+00    2.8899428358008459E+00    7.7833143465140289E+00
HW    2.7803719755967000E+00    2.3382103993875263E+00    7.5316279865152378E+00
OW    8.6384879771907013E+00    9.3859786115681043E+00    3.3395848594783217E+00
HW    8.4796754795287654E+00    9.0632550760340145E+00    4.2312319882943399E+00
HW    9.2397344549363236E+00    1.0119772721431330E+01    3.5973776827337254E+00
OW    3.0803678323798391E+00    4.3586877484205937E+00    4.9112189934516142E+00
HW    3.9110546853164823E+00    4.7896998384536200E+00    4.5230622238903075E+00
HW    3.3857953246939401E+00    3.9229780669232732E+00    5.7217166907672397E+00
OW    5.6297051353156213E+00    3.3188547287006247E+00    1.1191440948786399E+01
HW    4.6742635155084882E+00    2.9748912475418523E+00    1.1154793877613873E+01
HW    5.8235725843662616E+00    3.2523844203489833E+00    1.0237217633118604E+01
OW    1.9386261265505345E+00    9.0908345826530947E+00    9.9020662736928440E+00
HW    1.4650351501838457E+00    9.1326950817135515E+00    1.0735445376238328E+01
HW    2.6278483301808935E+00    8.4447907082041986E+00    1.0000426370920648E+01
OW    3.7307003762973707E+00    7.0376568065992542E+00    9.7126719134313166E+00
HW    4.3883270358732478E+00    6.8031244409898246E+00    1.0404125784458259E+01
HW    4.1319648864083369E+00    6.8132418157374968E+00    8.8103285307903274E+00
OW    6.7497917101625644E+00   -1.7863762484547459E+00    5.8120796414957985E+00
HW    6.4218544826553803E+00   -1.4796665739720740E+00    4.9225083415220476E+00
HW    6.4798176454070004E+00   -2.6884324877049726E+00    5.6702550193144798E+00
OW    5.2424460223320155E+00    5.9097701886588139E+00    1.1989072258713350E+01
HW    5.4969840206868108E+00    4.9667722646833159E+00    1.1786557840375783E+01
HW    6.0934599099700471E+00    6.2785203978901896E+00    1.2375524630731675E+01
OW    8.1428503412454400E-01    1.1484075279589998E+00    8.3388974720083660E+00
HW    9.2711953256419366E-01    1.3727467728846074E-01    8.3094049132826679E+00
HW    1.5175131891872107E+00    1.4380463443080738E+00    8.9907484283691605E+00
OW    5.8264373301036940E+00    3.1843451638671421E+00    8.5576004942013970E+00
HW    6.3520472243078805E+00    2.4146151106963951E+00    8.2890915916806041E+00
HW    6.2766117472179506E+00    4.0337057664624565E+00    8.4826212045283178E+00
OW    9.4101852793224250E+00    6.8986066560309327E+00    5.2290953955960271E+00
HW    8.5150265903165927E+00    7.2396672895609875E+00    5.3987497813373500E+00
HW    9.3231386884519889E+00    5.9111376480009614E+00    5.1581457322230886E+00
OW    1.9717619067477081E+00    5.0949491389578316E+00    1.0560969045741547E+01
HW    1.6960469954399644E+00    5.8365339915396728E+00    1.1195806054781743E+01
HW    2.8264664646233206E+00    5.5101133408644269E+00    1.0337718500477431E+01
OW    2.8786399159366010E+00    3.8407212930710193E+00    3.3767490963069228E+01
HW    3.4609704374730850E+00    4.0972003578515492E+00    3.3029587096627232E+01
HW    3.1512175426466444E+00    2.9792399305727097E+00    3.4088189846191817E+01
OW   -1.3626397586830683E+01    1.1869114146724231E+01    3.5609033556874756E+01
HW   -1.4504947220594346E+01    1.1597733075992403E+01    3.5265760047090936E+01
HW   -1.2918563127433949E+01    1.1510349272571334E+01    3.4960762402699650E+01
OW    6.5618593910978984E-01    1.4016292796685348E+00    3.4052263318962467E+01
HW   -1.0706910618025132E-01    1.8299184474634522E+00    3.3663502144511291E+01
HW    4.4601988797182335E-01    1.3345296130667932E+00    3.5039562919857723E+01
OW    1.9243330227431752E+01    8.8171221538674516E+00    4.1216669137171735E+01
HW    1.8285180644072106E+01    9.0780352652509819E+00    4.1459824693172330E+01
HW    1.9070272409582564E+01    7.8931166624241387E+00    4.0760898282699806E+01
OW    9.5884604305602483E-01    6.5707578719522317E+00    3.2156391646516802E+01
HW    1.8394479858658290E+00    6.2443455893789110E+00    3.2260537347985668E+01
HW    7.9311568161582735E-01    7.1519271595926641E+00    3.2944026384103523E+01
OW    1.8030110391663237E+00    3.1086135800284258E+00    3.0356799154619864E+01
HW    2.2496175137177437E+00    3.0134177791384542E+00    2.9484313620694230E+01
HW    1.5728559476566424E+00    4.0192938530103000E+00    3.0584027073603149E+01
OW    3.1153382746648939E+00    8.0927697590140291E+00    3.4124128209162436E+01
HW    2.2760060264362707E+00    7.6847196189269660E+00    3.4340027857907273E+01
HW    3.6887795063529287E+00    8.0972927241393187E+00    3.4926711304435280E+01
OW    5.5424448982101637E+00   -1.0120453837722307E+00    3.2365333450529725E+01
HW    4.8843148785677943E+00   -6.0394647074626251E-01    3.1738223512978543E+01
HW    6.2827207204753437E+00   -4.0091104532869115E-01    3.2178070423799277E+01
OW    1.7622347311866655E+01    2.9703004217371696E+00    4.2516094371040545E+01
HW    1.7760548856884018E+01    3.9961635930205097E+00    4.2644772953249131E+01
HW    1.6709430180628509E+01    2.8090630243070227E+00    4.2740020140107156E+01
OW   -8.9786107493866685E-01    1.0790959628176607E+01    3.3339372598612179E+01
HW   -5.3383251899332629E-02    1.1017522365949443E+01    3.2997130132933698E+01
HW   -1.5002086342264356E+00    1.1310098852422945E+01    3.2831852714356401E+01
OW    4.2630478936081531E+00    2.3218442578879861E+00    3.1700429625339094E+01
HW    3.9804038768206218E+00    1.6558745447121528E+00    3.2390236865760471E+01
HW    3.4626266140224438E+00    2.5360454122900369E+00    3.1134590950991718E+01
OW    5.7803435727639817E-02    1.4078999961001131E+00    3.6738742043679721E+01
HW    4.3612260668648593E-03    2.2076420194483815E+00    3.7316748396932887E+01
HW    7.6671563755775651E-01    7.6948152199485442E-01    3.7204219092450401E+01
OW    1.4242117637950409E+01    1.0812426463451974E+01    4.3224344133915416E+01
HW    1.3888099272812163E+01    1.0931062728930794E+01    4.2333574026399660E+01
HW    1.4120478236334906E+01    9.8508541488801900E+00    4.3456611787993197E+01
OW    7.7577763850733854E+00    3.5315257905151394E+00    3.8214504457243038E+01
HW    8.6304317687476484E+00    3.1053194649420264E+00    3.7987601597579058E+01
HW    7.8286950282611638E+00    4.4585302010954981E+00    3.7987519330190004E+01
OW    3.6020880483489677E+00    5.7244947064712228E+00    3.8267321091653024E+01
HW    4.1903669268972026E+00    6.0350684143472941E+00    3.9016154887971396E+01
HW    3.7366124682805468E+00    4.7651391479520697E+00    3.8250180259669953E+01
OW    1.3582086177844939E+01    8.0215457424607770E+00    4.3233594538467393E+01
HW    1.2918416012696159E+01    8.3209275120732027E+00    4.2541127560270134E+01
HW    1.3025530108799547E+01    7.4912653066096251E+00    4.3899864085557795E+01
OW    4.0675214210087498E+00    7.7985546862520359E+00    3.6684013876903428E+01
HW    3.8754763693686076E+00    6.9229429045728201E+00    3.7076547420131206E+01
HW    5.0549580256396496E+00    7.9292085541262871E+00    3.6555381552628383E+01
OW    1.4990924815939000E+01    8.0400469023803023E+00    4.0019005193960332E+01
HW    1.4542757661308064E+01    7.3572433263035331E+00    3.9444183688728494E+01
HW    1.4890937082349211E+01    7.5596953845356376E+00    4.0869725139046629E+01
OW    1.2458544628731438E+01    6.0000091667259321E+00    4.4989235705975219E+01
HW    1.2358942847767826E+01    6.3430854338779614E+00    4.5920199018597167E+01
HW    1.2601020742966007E+01    5.0382394674715840E+00    4.5089404010542410E+01
OW    1.2498209626467645E+01    2.2866493007757724E+00    4.7606523013269522E+00
HW    1.1944246327853175E+01    1.9651382595545257E+00    5.4740334106382074E+00
HW    1.2361834751279241E+01    1.7188446223855871E+00    4.0133173962968005E+00
OW    1.2148822652627958E+01    3.8574169785809680E+00   -1.3051415854420172E+00
HW    1.1769645622880157E+01    2.9862532525555991E+00   -1.4765384061226479E+00
HW    1.1508926562591103E+01    4.4350633970856101E+00   -1.7874862320680069E+00
OW    1.4200038613780992E+01    3.1906506225913325E+00    4.6981970962242215E+01
HW    1.3686362541655310E+01    3.9126449074211176E+00    4.7460226660431388E+01
HW    1.4851760806433875E+01    3.4845004125533761E+00    4.6354611387444606E+01
OW    1.1896486476500939E+01    6.0022857549278799E+00    3.4554028803015533E+00
HW    1.2118748365962359E+01    5.6693401712412319E+00    2.5444168181274418E+00
HW    1.1117360081145435E+01    6.5887754469579916E+00    3.2594676068375641E+00
OW    2.5889457351178891E+00    9.6300223751218414E+00    3.7986521990597751E+01
HW    2.3144640576244218E+00    9.0121907335552969E+00    3.8674623228200076E+01
HW    3.1425674919762341E+00    9.0210384056346467E+00    3.7420914295541003E+01
OW    1.9126083283675086E+01    6.0889430784123046E+00    4.0402210658720982E+01
HW    1.9920890588542811E+01    5.5701017151611838E+00    4.0301974408353516E+01
HW    1.8812613564303305E+01    5.8054824074051208E+00    4.1328558005634889E+01
OW    8.1557807293426201E+00    6.5078187098972435E+00    3.7438698276293294E+01
HW    8.2848657713774170E+00    5.8118909481022509E+00    3.6726267459570998E+01
HW    8.9437858604759715E+00    6.3229282321682856E+00    3.8020287668053449E+01
OW    1.1586083328708492E+01    4.3246916989510069E+00    5.0726317369846079E+01
HW    1.1608557873912018E+01    4.0268595484122169E+00    5.1636389624123382E+01
HW    1.0683715038055551E+01    4.4353777081059738E+00    5.0414411547087404E+01
OW    1.8770259436471676E+01   -1.3612021143704773E+00    4.2762934704058736E+01
HW    1.9326806161055995E+01   -1.1236762006927614E+00    4.3547015298612443E+01
HW    1.7922299503626263E+01   -8.7638113647951565E-01    4.2933057764319017E+01
OW    1.3871721038601164E+01    4.2628683423363558E+00    4.0708146321794196E+01
HW    1.3260536818787063E+01    3.4789245714674673E+00    4.0847675061353641E+01
HW    1.4472254192893942E+01    3.7875331534068608E+00    4.0113604803942863E+01
     &END COORD
     &VELOCITY
          -2.4287840369969684E-05   -5.6052693358816926E-05    5.5389450408062783E-05
           7.3461585615921661E-05   -1.9745373128545258E-05   -7.9515928960112553E-06
           5.0252631281541052E-05   -6.8792412730197310E-05   -1.2111040873973617E-05
          -6.1841628034161155E-05    1.1074951254308047E-05    5.1162716473303391E-05
           1.3379104084182969E-04    3.1341519476006905E-05   -3.9444051934769335E-05
           2.5472383572306891E-05   -5.7156045282206681E-05   -4.0609620714600660E-05
          -2.4390923153289247E-05   -8.5189568426621494E-06   -2.8106011719877176E-05
          -4.8101659171844637E-05   -4.6129664986212652E-05   -6.9184876988738830E-06
           6.3753537220596063E-05    2.1822862402601794E-05   -1.0308399498667084E-04
          -1.2011010814434516E-04   -7.0336704791778553E-05   -5.6831745048065111E-05
          -4.6816149219087004E-05    3.2805130673772924E-05   -4.9824085892889111E-05
          -2.0585353686166878E-05    1.0976026907493087E-05   -2.4039007169780511E-05
           2.4803959726988110E-05    6.8276027359003716E-05    2.0464193098609164E-05
          -9.8682098887902087E-05    1.7544690369831903E-06   -3.4103042319001312E-05
          -3.5510078039362899E-05    2.4572561598067480E-05    3.6280097918418089E-05
           3.3416522300533999E-05   -5.5256840397469904E-05   -1.8724481516391778E-05
           1.1880298567583793E-05    4.3122021707972359E-05    6.0432445882610680E-05
           9.6028117543013784E-05    3.5683365489261818E-05    5.4803996267506606E-05
           6.6576804042161919E-05   -5.1472176803040176E-05    1.0132096634041108E-04
           8.5204501320683323E-05    1.8311973517393521E-05   -8.3242207864597107E-06
           2.7282840020987337E-05   -5.7296122380703717E-05   -1.2593097366077008E-05
          -7.1862457248103351E-05   -2.0210890494945270E-05   -1.0264273990168512E-04
           8.8898394748415906E-06    5.9573463245856314E-05    1.5306197341634237E-04
          -1.3665601878296026E-05   -5.8888090913308893E-05    6.0053892210921628E-05
          -1.8987336768521267E-04   -5.3914477658017725E-05   -8.0839548232381492E-05
           1.5217505738401141E-04   -1.1563299326169988E-04    1.4659445796258783E-04
          -1.2878098223493900E-04    2.0408556625176468E-05   -1.4266139430158586E-04
           3.8426005007858014E-05    1.3945561451671781E-04    8.3024860900323723E-05
           1.0914685945211218E-04   -1.9329033911467402E-05   -6.7284360718873582E-05
           1.2951812953651895E-04    2.9085048970225899E-04    3.2612007923871275E-05
           1.1718225359850552E-04    4.1079840780510959E-04    3.6711974363610523E-04
          -3.0943233089856690E-04    1.3830806616648298E-04    3.9126785413074703E-04
           1.0145042858769288E-04    2.9814986947040469E-04    1.0430466600378479E-04
           5.9008982269659384E-06   -7.9929602574760583E-05   -5.7722315997497578E-05
          -4.3778681852832472E-04   -3.6988250320359715E-05   -2.2880776508794158E-04
          -9.6324773687272521E-06    1.2813988100833184E-04   -1.0863440255304004E-05
          -2.2135216776710974E-04   -9.6514950087362185E-06   -8.2547302524405925E-05
          -2.9519966137811179E-05   -9.6361923209554900E-05   -5.5448393947778961E-05
           1.3463416644464543E-04    1.2073291394517048E-04    4.5571722633401746E-04
          -1.3120661193656451E-05    2.1472560539550413E-04    1.7705265727080600E-04