 # Version information for this restart file 
 # current date 2016-07-15 04:08:36.594
 # current working dir /fs3/e05/e05/gfvr/rcut-fixed-A-3189f38c0b82e789c60773310b94a123/run-2
 # Program compiled at                              Tue Feb  2 22:08:17 GMT 2016
 # Program compiled on                                                eslogin008
 # Program compiled for                                                   ARCHER
 # Source code revision number                                         svn:16458
 &GLOBAL
   PROJECT_NAME hematite
   OUTPUT_FILE_NAME ./out/base
   RUN_TYPE  MD
 &END GLOBAL
 &MOTION
   &MD
     ENSEMBLE  NPT_F
     STEPS  10000
     TIMESTEP     4.9999999999999994E-01
     STEP_START_VAL  680
     TIME_START_VAL     3.3999999999999409E+02
     ECONS_START_VAL    -4.5589206925946146E+03
     TEMPERATURE     3.3000000000000006E+02
     &BAROSTAT
       PRESSURE     1.0129999999999999E+00
       &VELOCITY
            -2.4171213438075652E-06    1.1496716682380105E-07   -4.9485415805525573E-07    1.1496716682380105E-07 \
            -2.7603748307267638E-06   -3.9558062713477766E-07   -4.9485415805525573E-07   -3.9558062713477766E-07    1.7345797763686779E-06
       &END VELOCITY
       &MASS
             4.2330639099311793E+08    4.2330639099311793E+08    4.2330639099311793E+08    4.2330639099311793E+08 \
             4.2330639099311793E+08    4.2330639099311793E+08    4.2330639099311793E+08    4.2330639099311793E+08    4.2330639099311793E+08
       &END MASS
       &THERMOSTAT
         TYPE  CSVR
         &CSVR
           TIMECON     9.6755373060191385E-01
           &THERMOSTAT_ENERGY
                 1.0316296842318255E-01
           &END THERMOSTAT_ENERGY
           &RNG_INIT
Wiener process for Thermostat # 1        1 F T F   9.5155341990022879E-01        2016934324.0        2355540509.0        1761040785.0        4229359828.0        2921638777.0        2199808476.0             12345.0             12345.0             12345.0             12345.0             12345.0             12345.0             12345.0             12345.0             12345.0             12345.0             12345.0             12345.0
           &END RNG_INIT
         &END CSVR
       &END THERMOSTAT
     &END BAROSTAT
     &THERMOSTAT
       TYPE  CSVR
       REGION  GLOBAL
       &CSVR
         TIMECON     9.9999999999999982E+00
         &THERMOSTAT_ENERGY
               8.0099691340245871E-01
         &END THERMOSTAT_ENERGY
         &RNG_INIT
Wiener process for Thermostat # 1        1 F T F  -1.2681464358153109E+00        2087578087.0        2293908719.0        1669668154.0        4273541903.0         965140692.0         295784500.0             12345.0             12345.0             12345.0             12345.0             12345.0             12345.0             12345.0             12345.0             12345.0             12345.0             12345.0             12345.0
         &END RNG_INIT
       &END CSVR
     &END THERMOSTAT
     &AVERAGES  T
       &RESTART_AVERAGES
         ITIMES_START  1
         AVECPU     1.2606964081828977E+02
         AVEHUGONIOT     0.0000000000000000E+00
         AVETEMP_BARO     5.9412219128981656E+02
         AVEPOT    -4.5600695737194146E+03
         AVEKIN     3.9569258186282641E-01
         AVETEMP     3.5296521388570892E+02
         AVEKIN_QM     0.0000000000000000E+00
         AVETEMP_QM     0.0000000000000000E+00
         AVEVOL     1.5686458327063034E+04
         AVECELL_A     1.3676281617566179E+01
         AVECELL_B     1.3575522808528349E+01
         AVECELL_C     8.5202600113111899E+01
         AVEALPHA     8.6226796694796093E+01
         AVEBETA     9.4556018592909084E+01
         AVEGAMMA     9.4926117836283879E+01
         AVE_ECONS    -2.5510680662456058E+00
         AVE_PRESS    -9.8458069637306508E+03
         AVE_PXX    -1.5747597544876893E+04
       &END RESTART_AVERAGES
     &END AVERAGES
   &END MD
   &PRINT
     &TRAJECTORY  ON
       FILENAME ./traj/pos
       FORMAT  DCD_ALIGNED_CELL
       &EACH
         MD  1
       &END EACH
     &END TRAJECTORY
     &VELOCITIES  ON
       FILENAME ./traj/vel
       FORMAT  DCD
       &EACH
         MD  1
       &END EACH
     &END VELOCITIES
     &FORCES  ON
       FILENAME ./traj/for
       FORMAT  DCD
       &EACH
         MD  1
       &END EACH
     &END FORCES
     &RESTART  ON
       FILENAME ./restart/base
       &EACH
         MD  5
       &END EACH
     &END RESTART
   &END PRINT
 &END MOTION
 &FORCE_EVAL
   METHOD  QS
   STRESS_TENSOR  ANALYTICAL
   &DFT
     BASIS_SET_FILE_NAME ../input/BASIS_ADMM
     BASIS_SET_FILE_NAME ../input/BASIS_MOLOPT
     POTENTIAL_FILE_NAME ../input/GTH_POTENTIALS
     UKS  T
     CHARGE  0
     &SCF
       MAX_SCF  40
       EPS_SCF     1.0000000000000001E-05
       SCF_GUESS  ATOMIC
       &OT  T
         MINIMIZER  DIIS
         PRECONDITIONER  FULL_SINGLE_INVERSE
       &END OT
       &OUTER_SCF  T
         EPS_SCF     1.0000000000000001E-05
         MAX_SCF  600
       &END OUTER_SCF
     &END SCF
     &AUXILIARY_DENSITY_MATRIX_METHOD
       ADMM_PURIFICATION_METHOD  MO_DIAG
       METHOD  BASIS_PROJECTION
     &END AUXILIARY_DENSITY_MATRIX_METHOD
     &QS
       EPS_DEFAULT     9.9999999999999998E-13
     &END QS
     &MGRID
       CUTOFF     4.0000000000000000E+02
     &END MGRID
     &XC
       DENSITY_CUTOFF     1.0000000000000000E-10
       GRADIENT_CUTOFF     1.0000000000000000E-10
       TAU_CUTOFF     1.0000000000000000E-10
       &XC_FUNCTIONAL  NO_SHORTCUT
         &PBE  T
           SCALE_X     0.0000000000000000E+00
           SCALE_C     1.0000000000000000E+00
         &END PBE
         &XWPBE  T
           SCALE_X    -1.2000000000000000E-01
           SCALE_X0     1.0000000000000000E+00
           OMEGA     1.1000000000000000E-01
         &END XWPBE
       &END XC_FUNCTIONAL
       &HF
         FRACTION     1.2000000000000000E-01
         &SCREENING
           EPS_SCHWARZ     1.0000000000000000E-04
           SCREEN_ON_INITIAL_P  F
         &END SCREENING
         &INTERACTION_POTENTIAL
           POTENTIAL_TYPE  SHORTRANGE
           OMEGA     1.1000000000000000E-01
         &END INTERACTION_POTENTIAL
         &MEMORY
           EPS_STORAGE_SCALING     1.0000000000000001E-01
           MAX_MEMORY  2400
         &END MEMORY
       &END HF
       &VDW_POTENTIAL
         POTENTIAL_TYPE  PAIR_POTENTIAL
         &PAIR_POTENTIAL
           TYPE  DFTD3
           PARAMETER_FILE_NAME ../input/dftd3.dat
           REFERENCE_FUNCTIONAL PBE0
         &END PAIR_POTENTIAL
       &END VDW_POTENTIAL
     &END XC
     &PRINT
     &END PRINT
   &END DFT
   &SUBSYS
     &CELL
       A     7.0594244356063980E+00   -2.2789272258281031E-02   -3.8394486043553847E-02
       B    -5.5722473235104275E-01    6.9666653948027681E+00   -5.2339991351000099E-02
       C    -3.4875703226259400E+00    2.6523513826147807E+00    4.5043459003238596E+01
       PERIODIC  XYZ
       MULTIPLE_UNIT_CELL  1 1 1
       &CELL_REF
         A     7.4100000000000001E+00    0.0000000000000000E+00    0.0000000000000000E+00
         B    -5.6075082412935573E-01    7.3887521621203573E+00    0.0000000000000000E+00
         C    -3.4053693773037792E+00    3.1567202268075030E+00    4.4759787497415424E+01
         MULTIPLE_UNIT_CELL  1 1 1
       &END CELL_REF
     &END CELL
     &COORD
FE1    4.1058112812823557E+00    5.7459354120135986E+00    1.8978249694093503E+01
FE1    9.3095893325429824E-01    2.1414042419147017E+00    1.9101815879348525E+01
FE1    4.0944932974513204E+00    2.3957585531600518E+00    2.3023648055418324E+01
FE2    1.2131362597311599E-02    6.2271411127483898E+00    2.7022481758269610E+01
FE2   -8.4510823203505236E-01    6.9134772228436461E+00    1.6757650442080159E+01
FE2    2.4613156607321032E+00    7.1714465622939834E+00    2.0735578311479649E+01
FE2   -8.0196126431067916E-01    3.7321096144705379E+00    2.0736477759237690E+01
FE2    2.4496459123945655E+00    3.9471097462839593E+00    2.4721646221258897E+01
FE1    2.7275353733317544E+00    6.9341621321768692E+00    1.6542523388894914E+01
FE1   -4.8773584654114382E-01    3.4259171541067541E+00    1.6861816201914628E+01
FE1    2.7473419162685433E+00    3.7060259679756125E+00    2.0787152506116609E+01
FE1    2.8493775634271490E-01    5.9056226993593866E+00    2.2938723019849775E+01
FE1    3.4369038980821567E+00    6.2308441754259523E+00    2.6845723041018669E+01
FE1    3.2785632741131937E-01    2.8718414577301767E+00    2.6867074585025108E+01
FE2    4.3347668031448414E+00    2.1424601395302698E+00    1.9014383099580627E+01
FE2   -1.3164704747141822E+00    7.5447582907462207E+00    2.4746126558038711E+01
FE1   -1.0596014488276837E+00    7.1574225856087610E+00    2.0800200843652075E+01
FE1    2.1241983466641243E+00    7.4138236701137279E+00    2.4625556456957241E+01
FE1   -1.0367505463490752E+00    4.0188299383698425E+00    2.4680332527085575E+01
FE2    5.5227878315506607E-01    5.6273240531318844E+00    1.8989266184705819E+01
FE2    3.8085103220009748E+00    5.8935672203488245E+00    2.2981401066292413E+01
FE2    5.9318716488111856E-01    2.4096277190202224E+00    2.2879733360253876E+01
FE2    3.8823303074244762E+00    2.8017024849057055E+00    2.6950108070358215E+01
FE2    3.0264570852661103E+00    3.5902789511734103E+00    1.6836244125944646E+01
O   -1.9198328277711112E+00    5.8425634924793153E+00    2.7711015097644449E+01
O    9.6956673939903693E-01    7.3035886961453782E+00    1.5848879908429486E+01
O    4.3100334375762550E+00    7.5154271199966551E+00    1.9942129081619754E+01
O    1.0619702800552120E+00    4.0671761203231718E+00    1.9842359771218874E+01
O    4.3518071912802689E+00    4.2915373715157106E+00    2.3924337727829219E+01
O    2.3919449186828060E-01    7.2207818611617771E+00    2.9241804987687914E+01
O   -1.5151641133087674E+00    5.7203660615565717E+00    1.4772001371821410E+01
O    2.2283767273898025E+00    6.2582145771695572E+00    1.8511442941508157E+01
O   -9.5857501255822442E-01    2.9258905676766518E+00    1.8674730354818742E+01
O    2.3211590612508743E+00    3.1342176569261571E+00    2.2615226373884479E+01
O   -7.9954527224960614E-01    7.9825248762504444E+00    2.6503234153935018E+01
O   -9.7229120548962544E-04    5.2663349439561395E+00    1.7151722501198670E+01
O    3.2414463731832894E+00    5.4566881561176332E+00    2.1204089894524184E+01
O    1.6062830484388640E-01    1.9663867980373264E+00    2.1043469143160575E+01
O    3.1938333354364850E+00    2.1803979979451182E+00    2.5133564366025944E+01
O    2.5236076494765638E+00    5.1562433795448142E+00    1.5706139935507828E+01
O   -8.3858443012842143E-01    1.5100862817598910E+00    1.5721817167755235E+01
O    2.5517138691588985E+00    1.8569218661650171E+00    2.0012543836233611E+01
O    4.5384624837953735E-01    7.7225159090817579E+00    2.3836297449294612E+01
O    3.8168595931834486E+00    8.0830692489587079E+00    2.7591811452716506E+01
O    5.7142599859750975E-01    4.5847721802753556E+00    2.7913584164919058E+01
O    4.4294229332285173E+00    6.2954652539603950E+00    1.7207433606362326E+01
O    1.3292936048741351E+00    2.8732238936084173E+00    1.7197926382074861E+01
O    4.5449753817387695E+00    3.0257291717380932E+00    2.1139741281465991E+01
O   -1.5061764170839653E+00    6.6172965967207631E+00    2.2618789440751176E+01
O    1.6890878193900773E+00    6.7966207023468685E+00    2.6481701673094602E+01
O   -1.4351454558742311E+00    3.4028601068777413E+00    2.6494803129942419E+01
O    3.4910949764141428E+00    7.4902343803310467E+00    1.4448477242307524E+01
O    4.7007365772632992E-01    4.0658763687122779E+00    1.4653390330252796E+01
O    3.5812409967574257E+00    3.9286134983962628E+00    1.8709532213858662E+01
O   -5.9389861141385547E-01    5.7340092932281861E+00    2.5236524387665241E+01
O    2.8186362318587710E+00    5.8676757155391410E+00    3.0183988269951818E+01
O   -6.3692149274687515E-01    2.0309076188550570E+00    3.0230451060713840E+01
O   -1.2832759863034742E+00    5.3788657991843580E+00    1.9810801662346751E+01
O    1.9996285628003674E+00    5.5723377346241056E+00    2.3781549452618549E+01
O   -1.2387127036309824E+00    2.1152930339995364E+00    2.3833897513122611E+01
O    2.0056180769125258E+00    2.2707584710084405E+00    2.7696491444013674E+01
O    4.6840804110059437E+00    3.6575716429853342E+00    1.5793880503263903E+01
O    7.6178191476866397E-01    6.4468836432685954E+00    2.1156577094438774E+01
O    3.9243803803303212E+00    6.7622045579019741E+00    2.4984704623301969E+01
O    7.0679051081606703E-01    3.3390920194436635E+00    2.4986813227679516E+01
O    4.5573490473731537E+00    3.8410054602048493E+00    2.9143522571570387E+01
O    3.3055335249633053E+00    3.1208166027328805E+00    1.2602391156162847E+01
O   -1.2948616080786343E-01    7.4705538039588548E+00    1.8554564538401191E+01
O    2.9962789728555799E+00    7.6404346982202211E+00    2.2557014849896497E+01
O   -2.5212768430978499E-01    4.1638875898767171E+00    2.2550919001110721E+01
O    3.0814169276721031E+00    4.4602207199742008E+00    2.6549357860323916E+01
O    3.7612792786584057E+00    1.7436036197242610E+00    1.7334932797807134E+01
H    8.8804421614378390E-02    2.5023439148742015E+00    3.0637769025856475E+01
H   -3.7573559759710917E-01    7.7162152592993776E+00    2.9865364052180130E+01
H    3.3747780485065686E+00    6.3563706389429466E+00    2.9555269132861635E+01
H    4.8917589353303574E+00    4.5492956567746115E+00    2.8499529512224754E+01
H    1.5238247367900668E+00    4.5037425366977617E+00    2.7819866931246917E+01
H    4.8529750290407918E+00    8.0600012855269849E+00    2.7639897108606977E+01
H    9.2457837200018334E-01    8.2564698987621199E+00    1.5544206761318273E+01
H    4.6998410648688198E+00    2.8198160992693300E+00    1.5321384548406018E+01
H   -1.8703233376564208E+00    6.2596687897716095E+00    1.4030159453316166E+01
H    1.2824745470779995E+00    4.4436034276425493E+00    1.5054852647162759E+01
H    3.7572747663157053E+00    3.9814225048704155E+00    1.2486947663096919E+01
H    4.3758568710296997E+00    7.6559254696473200E+00    1.4795433879466433E+01
H    5.1929135435093130E+00    3.1963405068227342E+00    2.9424926898627586E+01
H    1.7360417601388967E+00    1.3892144761411624E+00    2.8126342963115722E+01
H   -1.8508617335855257E+00    6.5200152095788351E+00    2.8438428865134913E+01
H    7.4061585028804733E-01    6.5697124984031134E+00    2.9780835765921744E+01
H    3.2674775105017084E+00    5.0051538754685199E+00    3.0271967003284704E+01
H   -1.4746247737246549E+00    2.1403895759272058E+00    3.0753502858575928E+01
H   -3.2039303756669857E-02    1.8281826503385046E+00    1.5348541422450634E+01
H    3.1667231881118778E+00    5.1084432118580692E+00    1.4966414139135038E+01
H    2.4349302729464966E+00    3.3417110768788283E+00    1.2189743627629356E+01
H   -1.9943364198633040E+00    4.8621845886417470E+00    1.4998856778094082E+01
H   -1.6500980484073846E-01    4.8222890310939759E+00    1.4525851336813030E+01
H    3.2786829392661465E+00    8.1531279853786227E+00    1.3763215749725163E+01
OW    1.2898582976827836E+01    5.1213735205180342E+00    1.0511672712009907E+00
HW    1.2551163712647934E+01    4.4768004159610069E+00    4.1070646087517043E-01
HW    1.3894083596591434E+01    5.0113124289193678E+00    1.0248677708439125E+00
OW    7.8698448557892531E-01    2.6392352747736130E+00    1.2379145417647822E+01
HW    5.2860468789218340E-01    3.0748252382229309E+00    1.3241259156449683E+01
HW   -5.5095490680424138E-02    2.6902931573531199E+00    1.1796179115607414E+01
OW    4.6209233630346178E+00    6.9046661256195794E+00    7.1139194072532810E+00
HW    5.3459677720692307E+00    6.4044717061600318E+00    6.7533596780833500E+00
HW    3.8105066479381997E+00    6.7889592805761803E+00    6.5873051180291071E+00
OW    8.4898848561338873E+00    5.2823852094182699E+00    1.9557120682238289E+00
HW    9.1025945531484016E+00    6.0613027429846706E+00    1.7969438307422523E+00
HW    8.5231287741922142E+00    5.0682007242790741E+00    2.9083184738900312E+00
OW    1.0763829462747407E+00    2.1894472475533715E-02    1.2981568526158185E+01
HW    7.5256689371798346E-01    8.9710787292988003E-01    1.2555182638730260E+01
HW    1.0262772967166760E+00    1.0491686524038715E-01    1.3953007565431925E+01
OW    1.1697855282390821E+00   -1.6494450655062809E+00    8.3597318774744576E+00
HW    1.7134120884618707E+00   -1.7205877722442022E+00    9.2540338354429554E+00
HW    1.7969060066676306E+00   -2.0508546191693235E+00    7.7253625612884260E+00
OW    3.4504477937986695E+00    2.9583092825662081E+00    7.2476989530378928E+00
HW    4.2635954945698096E+00    2.8493125864483710E+00    7.7660839547653797E+00
HW    2.8213767382954291E+00    2.3346376662048502E+00    7.5934411617389861E+00
OW    8.6339300761040860E+00    9.3729350519309786E+00    3.3400244555213958E+00
HW    8.4484755840042265E+00    9.0234316198266491E+00    4.2214305904423952E+00
HW    9.2489821027757948E+00    1.0100380392865935E+01    3.5556493033112080E+00
OW    3.0774401764291106E+00    4.3591532460052029E+00    4.9155898373942710E+00
HW    3.8525901804014948E+00    4.8519301837008841E+00    4.5350028737338031E+00
HW    3.3873799327632503E+00    3.8715881078272076E+00    5.7755765432861770E+00
OW    5.6423539372970879E+00    3.3203964933400840E+00    1.1193131172932091E+01
HW    4.7415039153199361E+00    2.9573106714106561E+00    1.1153375626603399E+01
HW    5.7787754038431594E+00    3.2828141210647299E+00    1.0174882070791458E+01
OW    1.9364248899773411E+00    9.1023268204232171E+00    9.8897975640504807E+00
HW    1.3840147554891693E+00    9.1557863347834640E+00    1.0726224866053876E+01
HW    2.6492251992841327E+00    8.3978755449415718E+00    1.0007557310192336E+01
OW    3.7171461254137945E+00    7.0365358064496588E+00    9.7149670052719923E+00
HW    4.3960309012320309E+00    6.7543678021686553E+00    1.0350080382730729E+01
HW    4.1190198746792115E+00    6.8446580436772333E+00    8.8110874096361549E+00
OW    6.7585726349561055E+00   -1.7861478355839897E+00    5.8029400953696024E+00
HW    6.4236073774217655E+00   -1.4083474258846020E+00    4.9084039038553371E+00
HW    6.5096338583168381E+00   -2.7629197317637533E+00    5.7140309541700365E+00
OW    5.2442218298809458E+00    5.9129831055557567E+00    1.1970509251086613E+01
HW    5.4637849303508101E+00    4.9732988494900976E+00    1.1775259462942760E+01
HW    6.0537476703469704E+00    6.2253075182479058E+00    1.2410498744047043E+01
OW    8.1080034864256600E-01    1.1451273060061051E+00    8.3258166312341189E+00
HW    8.5594349295928396E-01    1.7926351376804259E-01    8.3088360194397204E+00
HW    1.4396435926306672E+00    1.4342966535811210E+00    8.9993515719781687E+00
OW    5.8181129688714623E+00    3.1723363023662743E+00    8.5735735341390527E+00
HW    6.3852153061232642E+00    2.4175531947937401E+00    8.1947541782842528E+00
HW    6.2977334765648676E+00    3.9798359226517257E+00    8.3799214892194200E+00
OW    9.3869618143768818E+00    6.8900482791158817E+00    5.2226627357494868E+00
HW    8.5062151559740631E+00    7.2278031033099559E+00    5.3882979129222388E+00
HW    9.3162402033342975E+00    5.9111938720241772E+00    5.1920304243281148E+00
OW    1.9684133847662382E+00    5.1063447990001789E+00    1.0577457643760463E+01
HW    1.7320040143609126E+00    5.7850922410895755E+00    1.1170477187632642E+01
HW    2.8193530950532710E+00    5.5183349411275575E+00    1.0297558099129770E+01
OW    2.8844488238363670E+00    3.8453488703922547E+00    3.3802733906385548E+01
HW    3.4447428873707335E+00    3.9903304080132882E+00    3.3029050807933800E+01
HW    3.1934543944691822E+00    2.9875257717929231E+00    3.4139242782559592E+01
OW   -1.3642315262532534E+01    1.1857270051439450E+01    3.5621989572026301E+01
HW   -1.4465487281940538E+01    1.1511705096555161E+01    3.5209960740810160E+01
HW   -1.2961472433496873E+01    1.1534553249422194E+01    3.5002570708252129E+01
OW    6.4681018839475901E-01    1.3754918760674451E+00    3.4068674758816485E+01
HW   -8.9929558780178276E-02    1.8453886113507199E+00    3.3686122241009087E+01
HW    4.6800217013543904E-01    1.3058607525268704E+00    3.5015257846699392E+01
OW    1.9233754850191211E+01    8.8220020038144771E+00    4.1214789997693551E+01
HW    1.8267962661128045E+01    9.0098470702750699E+00    4.1451941056870304E+01
HW    1.9058147135871867E+01    7.9594470628083736E+00    4.0748929942399180E+01
OW    9.4888154734308328E-01    6.5699356578960346E+00    3.2173134603807888E+01
HW    1.9143888386917478E+00    6.3472773669666722E+00    3.2271744953662200E+01
HW    7.8710084076893150E-01    7.1899587647575611E+00    3.2938470528586173E+01
OW    1.7733722604489672E+00    3.1161801118465045E+00    3.0379540773130987E+01
HW    2.2454501732417245E+00    3.0543036347851684E+00    2.9521202522000330E+01
HW    1.5905001986406151E+00    4.0520386602931158E+00    3.0550185671583744E+01
OW    3.1071136334898775E+00    8.1128377722632212E+00    3.4119450974292228E+01
HW    2.2669578639281549E+00    7.6944001246488138E+00    3.4389573391830616E+01
HW    3.6440858986275622E+00    8.1476365629582119E+00    3.4934972903402347E+01
OW    5.5510207792662518E+00   -1.0179037569072644E+00    3.2364777450850070E+01
HW    4.8664489750564979E+00   -6.8510221333322918E-01    3.1750813094169363E+01
HW    6.2830412964565214E+00   -4.0949590133983294E-01    3.2171050264823641E+01
OW    1.7617683363760396E+01    2.9685167528099998E+00    4.2525250327645168E+01
HW    1.7771208754139437E+01    3.9996652035665723E+00    4.2663430285287752E+01
HW    1.6698629514299888E+01    2.7878367432275559E+00    4.2692978859255355E+01
OW   -8.9888598123181684E-01    1.0795063537616624E+01    3.3339748111173591E+01
HW   -3.0804818457974125E-02    1.1013483236696207E+01    3.3046469366809966E+01
HW   -1.5051309015085970E+00    1.1350061384759105E+01    3.2829443062153345E+01
OW    4.2559057172080834E+00    2.3155896428331428E+00    3.1722347600405637E+01
HW    4.0076280347363156E+00    1.6187792684324962E+00    3.2350527024532589E+01
HW    3.4437880717864644E+00    2.5186134717276221E+00    3.1168084735671158E+01
OW    5.4040519695426309E-02    1.3991006872243885E+00    3.6752598396484537E+01
HW    2.8967476948576005E-02    2.2023534422973077E+00    3.7313256371158353E+01
HW    7.3276031906293582E-01    8.0289790166670294E-01    3.7171437567128123E+01
OW    1.4238665172573761E+01    1.0805421124853567E+01    4.3235614065233776E+01
HW    1.3926128219136732E+01    1.0859065769081006E+01    4.2318723186210256E+01
HW    1.4138463133131353E+01    9.8614623274374011E+00    4.3440094288800928E+01
OW    7.7724564133717591E+00    3.5388539330090976E+00    3.8207945730375911E+01
HW    8.6504542851015334E+00    3.1398261423197309E+00    3.7978025025071709E+01
HW    7.8739596919384693E+00    4.4828174668736427E+00    3.7967706886209726E+01
OW    3.5826637435347530E+00    5.7267673469570841E+00    3.8283005214562891E+01
HW    4.2105124968449061E+00    5.9968630290941212E+00    3.9005476485936789E+01
HW    3.6658036246892403E+00    4.7278982642653542E+00    3.8285144221555420E+01
OW    1.3585678164891918E+01    8.0111817893852315E+00    4.3243895615070215E+01
HW    1.2968077216562365E+01    8.3142019353164383E+00    4.2558037666344539E+01
HW    1.3129775487173966E+01    7.4860461178767732E+00    4.3856702360267377E+01
OW    4.0658121504780125E+00    7.7800527096609562E+00    3.6691584315393406E+01
HW    3.9392352598246396E+00    6.9308272691826494E+00    3.7106689571749214E+01
HW    5.0347596264670180E+00    7.9509312593728581E+00    3.6591700728372565E+01
OW    1.4987695369205898E+01    8.0490530176887596E+00    4.0038763548564035E+01
HW    1.4527702408601359E+01    7.3953749165703737E+00    3.9528994338166314E+01
HW    1.4878497028780600E+01    7.5557234086854024E+00    4.0850319525440113E+01
OW    1.2475985379798063E+01    5.9925585798258956E+00    4.5012087759750607E+01
HW    1.2370304960409374E+01    6.4002328903725161E+00    4.5904861331030894E+01
HW    1.2522708412552049E+01    5.0128102546218898E+00    4.5066727882378117E+01
OW    1.2483205358166334E+01    2.2888897532401749E+00    4.7670053233009275E+00
HW    1.1954006983639879E+01    1.9705423085885010E+00    5.5174729989731555E+00
HW    1.2404484194941009E+01    1.7117222110040307E+00    3.9743995873288678E+00
OW    1.2154827572626093E+01    3.8411403256444827E+00   -1.3087168075056930E+00
HW    1.1757430568470568E+01    2.9365989308778233E+00   -1.4918545281985034E+00
HW    1.1521277225940322E+01    4.4066788003296464E+00   -1.7739575247927246E+00
OW    1.4205521896789730E+01    3.1769470125109112E+00    4.6986770689259366E+01
HW    1.3618161838563745E+01    3.8787641494879450E+00    4.7442579402198547E+01
HW    1.4876371259786643E+01    3.5151357306253859E+00    4.6342273078519305E+01
OW    1.1894009857622379E+01    6.0208100051339768E+00    3.4415815289650498E+00
HW    1.2174574832981826E+01    5.6661913609798766E+00    2.5896919170355304E+00
HW    1.1103332156672627E+01    6.5411674775288935E+00    3.2568887960062898E+00
OW    2.5717841180220882E+00    9.6212801667860255E+00    3.7987827824339590E+01
HW    2.2883786331494207E+00    9.0468189623132318E+00    3.8688897257340344E+01
HW    3.1951582421056468E+00    8.9715812018299932E+00    3.7460913352810195E+01
OW    1.9111927966498222E+01    6.0960086003020271E+00    4.0404111482404765E+01
HW    1.9933015191362209E+01    5.5612000776267214E+00    4.0206163112152574E+01
HW    1.8812370263046180E+01    5.8766804718741978E+00    4.1303798049579740E+01
OW    8.1424207478693962E+00    6.4979459800496313E+00    3.7455830144865566E+01
HW    8.2650694949678734E+00    5.8421765901824187E+00    3.6710459357402520E+01
HW    8.9381306258387738E+00    6.3562594556796421E+00    3.8031275200505220E+01
OW    1.1576529224812360E+01    4.3292288991672372E+00    5.0746120478666832E+01
HW    1.1569044131614270E+01    4.0432955885356821E+00    5.1691334157170502E+01
HW    1.0633546846027206E+01    4.4630942229882180E+00    5.0406701149164228E+01
OW    1.8753792610126233E+01   -1.3674279694158444E+00    4.2788788236956414E+01
HW    1.9316287706855640E+01   -1.1327764877648419E+00    4.3606267429457588E+01
HW    1.7963776260385796E+01   -8.2390456162525050E-01    4.2962492090654152E+01
OW    1.3867477365710341E+01    4.2442515760113944E+00    4.0734155147915494E+01
HW    1.3258335261261598E+01    3.4669188975775369E+00    4.0854262920375135E+01
HW    1.4439287756381001E+01    3.7951844773121466E+00    4.0042204917210107E+01
     &END COORD
     &VELOCITY
          -3.6048784706917112E-05   -5.8618138408740171E-05    5.8519869841254370E-05
           7.6959812001456748E-05    3.0655950450440407E-06   -1.4438025012091461E-05
           6.6896153294698310E-05   -5.6107571486529455E-05   -1.0763842001222584E-05
          -6.9389308894092646E-05    2.3717166949607262E-05    3.7020882018321635E-05
           1.3234257678053956E-04    1.0023251113882186E-05   -1.8521917901146544E-05
           2.6265246200527745E-05   -6.2526563458147793E-05   -3.6930999258178495E-05
          -2.5412643161993966E-05   -1.2508456631281223E-05   -3.3722868569505531E-05
          -4.2230747070036618E-05   -4.4770242298345911E-05   -7.0000072968948625E-06
           6.3318537973558245E-05    3.9434195534323978E-05   -6.1109697891763477E-05
          -1.1392547003064764E-04   -4.8780415500334568E-05   -3.9614102198834956E-05
          -5.7524462561271784E-05    3.5283441002165261E-05   -5.8475424799354647E-05
          -8.5150376131406165E-06    1.6915554592778754E-05   -1.4547533241190541E-05
           2.1202415872679153E-05    8.3908128926600444E-05   -1.1736897881423226E-05
          -1.0496216472562901E-04   -2.3588285066276020E-05   -2.7150445142993019E-05
          -2.3431033345261346E-05    2.7012638072789411E-05    6.0534877918990598E-05
           2.2903552465442606E-05   -7.5694358446655479E-05   -1.6248038743328201E-05
           2.3144266031705101E-06    4.6384247707389772E-05    7.0116092687684368E-05
           9.9441321179826521E-05    2.8396024447246081E-05    7.5970291632780363E-05
           5.6750680321824135E-05   -5.2165443689358114E-05    1.0568162017844379E-04
           8.6365237435865772E-05    2.2251308551351289E-05   -2.0218944071078567E-05
           4.5265392709341514E-05   -5.6569279716307943E-05    4.8172770522293314E-06
          -7.5062001254695709E-05   -2.4317450763340070E-05   -8.6961575178946853E-05
           5.8204444729972608E-06    6.2329353431996308E-05    1.4698852282353373E-04
          -1.5891394748038637E-05   -7.6520394145808377E-05    1.1378239241739772E-04
          -1.8589925395032033E-04   -4.4003648846369454E-05   -1.1786200654681639E-06
           1.1384993152936528E-04   -9.8403867119812896E-05    9.1704754384870871E-05
          -1.6045224589855212E-04    2.1077094729334980E-05   -1.8011175690679646E-04
           6.1352056090209156E-05    9.0347228732929252E-05    1.1547929219509475E-04
           2.4082155195521664E-05   -2.5737148931343652E-05   -1.2249277562671363E-04
           1.8936380000893674E-04    1.9250789500139195E-04    6.0655901962029548E-05
           1.9440125430106171E-04    4.5697833145718329E-04    3.8748617095526870E-04
          -2.7929260682240384E-04    1.7478929110580934E-04    3.8090225781907698E-04
           9.4459685863771686E-05    2.6536081943528890E-04    6.9435877955470072E-05
          -2.2485347434322227E-05   -9.3708124665910155E-05   -5.3391436640041395E-05
          -4.1760326116960776E-04    2.2952649422445845E-06   -1.7909553687400938E-04
          -6.9852789376847709E-05    3.8288360017321026E-05    4.9613485726085439E-06
          -2.0559127381267713E-04   -4.2775989144122292E-05   -1.3647021601196992E-04
          -8.2138063366690711E-05   -1.0579821466788157E-04   -2.3118937001824666E-05
           1.6401886411733759E-04    1.6025033461326748E-04    4.4881466591837168E-04
          -1.6865851319517155E-05    1.5563656788511411E-04    1.2585772770050421E-04