 # Version information for this restart file 
 # current date 2016-07-15 04:19:00.220
 # current working dir /fs3/e05/e05/gfvr/rcut-fixed-A-3189f38c0b82e789c60773310b94a123/run-2
 # Program compiled at                              Tue Feb  2 22:08:17 GMT 2016
 # Program compiled on                                                eslogin008
 # Program compiled for                                                   ARCHER
 # Source code revision number                                         svn:16458
 &GLOBAL
   PROJECT_NAME hematite
   OUTPUT_FILE_NAME ./out/base
   RUN_TYPE  MD
 &END GLOBAL
 &MOTION
   &MD
     ENSEMBLE  NPT_F
     STEPS  10000
     TIMESTEP     4.9999999999999994E-01
     STEP_START_VAL  685
     TIME_START_VAL     3.4249999999999397E+02
     ECONS_START_VAL    -4.5589206925946146E+03
     TEMPERATURE     3.3000000000000006E+02
     &BAROSTAT
       PRESSURE     1.0129999999999999E+00
       &VELOCITY
            -2.6360636268217702E-06    9.4272220549861909E-08   -4.9671844954444848E-07    9.4272220549861909E-08 \
            -3.0468999392980852E-06   -4.0725885490824170E-07   -4.9671844954444848E-07   -4.0725885490824170E-07    1.9901012732174487E-06
       &END VELOCITY
       &MASS
             4.2330639099311793E+08    4.2330639099311793E+08    4.2330639099311793E+08    4.2330639099311793E+08 \
             4.2330639099311793E+08    4.2330639099311793E+08    4.2330639099311793E+08    4.2330639099311793E+08    4.2330639099311793E+08
       &END MASS
       &THERMOSTAT
         TYPE  CSVR
         &CSVR
           TIMECON     9.6755373060191385E-01
           &THERMOSTAT_ENERGY
                 1.0231022672523007E-01
           &END THERMOSTAT_ENERGY
           &RNG_INIT
Wiener process for Thermostat # 1        1 F T F  -7.4764235654854316E-01         325931737.0        1534439619.0         852592568.0        1144123519.0        3730945162.0        1754413399.0             12345.0             12345.0             12345.0             12345.0             12345.0             12345.0             12345.0             12345.0             12345.0             12345.0             12345.0             12345.0
           &END RNG_INIT
         &END CSVR
       &END THERMOSTAT
     &END BAROSTAT
     &THERMOSTAT
       TYPE  CSVR
       REGION  GLOBAL
       &CSVR
         TIMECON     9.9999999999999982E+00
         &THERMOSTAT_ENERGY
               8.0017744573800798E-01
         &END THERMOSTAT_ENERGY
         &RNG_INIT
Wiener process for Thermostat # 1        1 F T F   3.3693408282702120E-01        3798454880.0        2760335926.0        1641435533.0        1517289736.0         364060098.0        2986041049.0             12345.0             12345.0             12345.0             12345.0             12345.0             12345.0             12345.0             12345.0             12345.0             12345.0             12345.0             12345.0
         &END RNG_INIT
       &END CSVR
     &END THERMOSTAT
     &AVERAGES  T
       &RESTART_AVERAGES
         ITIMES_START  1
         AVECPU     1.2605981111300164E+02
         AVEHUGONIOT     0.0000000000000000E+00
         AVETEMP_BARO     5.9184319082857348E+02
         AVEPOT    -4.5600703327493438E+03
         AVEKIN     3.9535404901077897E-01
         AVETEMP     3.5266323622424329E+02
         AVEKIN_QM     0.0000000000000000E+00
         AVETEMP_QM     0.0000000000000000E+00
         AVEVOL     1.5681030484178420E+04
         AVECELL_A     1.3673816487049463E+01
         AVECELL_B     1.3572819104335265E+01
         AVECELL_C     8.5204999232453162E+01
         AVEALPHA     8.6230469171383064E+01
         AVEBETA     9.4557391720360954E+01
         AVEGAMMA     9.4924866818459577E+01
         AVE_ECONS    -2.5432332376453788E+00
         AVE_PRESS    -9.7469661918104193E+03
         AVE_PXX    -1.5604269238275667E+04
       &END RESTART_AVERAGES
     &END AVERAGES
   &END MD
   &PRINT
     &TRAJECTORY  ON
       FILENAME ./traj/pos
       FORMAT  DCD_ALIGNED_CELL
       &EACH
         MD  1
       &END EACH
     &END TRAJECTORY
     &VELOCITIES  ON
       FILENAME ./traj/vel
       FORMAT  DCD
       &EACH
         MD  1
       &END EACH
     &END VELOCITIES
     &FORCES  ON
       FILENAME ./traj/for
       FORMAT  DCD
       &EACH
         MD  1
       &END EACH
     &END FORCES
     &RESTART  ON
       FILENAME ./restart/base
       &EACH
         MD  5
       &END EACH
     &END RESTART
   &END PRINT
 &END MOTION
 &FORCE_EVAL
   METHOD  QS
   STRESS_TENSOR  ANALYTICAL
   &DFT
     BASIS_SET_FILE_NAME ../input/BASIS_ADMM
     BASIS_SET_FILE_NAME ../input/BASIS_MOLOPT
     POTENTIAL_FILE_NAME ../input/GTH_POTENTIALS
     UKS  T
     CHARGE  0
     &SCF
       MAX_SCF  40
       EPS_SCF     1.0000000000000001E-05
       SCF_GUESS  ATOMIC
       &OT  T
         MINIMIZER  DIIS
         PRECONDITIONER  FULL_SINGLE_INVERSE
       &END OT
       &OUTER_SCF  T
         EPS_SCF     1.0000000000000001E-05
         MAX_SCF  600
       &END OUTER_SCF
     &END SCF
     &AUXILIARY_DENSITY_MATRIX_METHOD
       ADMM_PURIFICATION_METHOD  MO_DIAG
       METHOD  BASIS_PROJECTION
     &END AUXILIARY_DENSITY_MATRIX_METHOD
     &QS
       EPS_DEFAULT     9.9999999999999998E-13
     &END QS
     &MGRID
       CUTOFF     4.0000000000000000E+02
     &END MGRID
     &XC
       DENSITY_CUTOFF     1.0000000000000000E-10
       GRADIENT_CUTOFF     1.0000000000000000E-10
       TAU_CUTOFF     1.0000000000000000E-10
       &XC_FUNCTIONAL  NO_SHORTCUT
         &PBE  T
           SCALE_X     0.0000000000000000E+00
           SCALE_C     1.0000000000000000E+00
         &END PBE
         &XWPBE  T
           SCALE_X    -1.2000000000000000E-01
           SCALE_X0     1.0000000000000000E+00
           OMEGA     1.1000000000000000E-01
         &END XWPBE
       &END XC_FUNCTIONAL
       &HF
         FRACTION     1.2000000000000000E-01
         &SCREENING
           EPS_SCHWARZ     1.0000000000000000E-04
           SCREEN_ON_INITIAL_P  F
         &END SCREENING
         &INTERACTION_POTENTIAL
           POTENTIAL_TYPE  SHORTRANGE
           OMEGA     1.1000000000000000E-01
         &END INTERACTION_POTENTIAL
         &MEMORY
           EPS_STORAGE_SCALING     1.0000000000000001E-01
           MAX_MEMORY  2400
         &END MEMORY
       &END HF
       &VDW_POTENTIAL
         POTENTIAL_TYPE  PAIR_POTENTIAL
         &PAIR_POTENTIAL
           TYPE  DFTD3
           PARAMETER_FILE_NAME ../input/dftd3.dat
           REFERENCE_FUNCTIONAL PBE0
         &END PAIR_POTENTIAL
       &END VDW_POTENTIAL
     &END XC
     &PRINT
     &END PRINT
   &END DFT
   &SUBSYS
     &CELL
       A     7.0576155571724719E+00   -2.2704506296323500E-02   -3.8761841161341945E-02
       B    -5.5700369382753567E-01    6.9646024461089313E+00   -5.2608213912845474E-02
       C    -3.4889508853678244E+00    2.6496749641677355E+00    4.5052012937524957E+01
       PERIODIC  XYZ
       MULTIPLE_UNIT_CELL  1 1 1
       &CELL_REF
         A     7.4100000000000001E+00    0.0000000000000000E+00    0.0000000000000000E+00
         B    -5.6075082412935573E-01    7.3887521621203573E+00    0.0000000000000000E+00
         C    -3.4053693773037792E+00    3.1567202268075030E+00    4.4759787497415424E+01
         MULTIPLE_UNIT_CELL  1 1 1
       &END CELL_REF
     &END CELL
     &COORD
FE1    4.1015642797164977E+00    5.7403101811055279E+00    1.8984630677405999E+01
FE1    9.3401310937109205E-01    2.1408307670854656E+00    1.9104281139295519E+01
FE1    4.0964057958022382E+00    2.3914542144742565E+00    2.3027116304753626E+01
FE2    6.9862319034785470E-03    6.2258878821780472E+00    2.7028818139167463E+01
FE2   -8.3843817611523619E-01    6.9107817692790334E+00    1.6760167314172293E+01
FE2    2.4611496093884049E+00    7.1649957672796276E+00    2.0737141603642300E+01
FE2   -8.0414500921086207E-01    3.7293800115589910E+00    2.0738206816501020E+01
FE2    2.4456583340548903E+00    3.9424966348154640E+00    2.4725619109140244E+01
FE1    2.7295463961203965E+00    6.9340519708362267E+00    1.6542899876372985E+01
FE1   -4.9454728315616847E-01    3.4220108258770359E+00    1.6863357710852664E+01
FE1    2.7421731285660962E+00    3.7060919460671164E+00    2.0787334081806708E+01
FE1    2.8368653095151375E-01    5.9040233237185529E+00    2.2942274899397706E+01
FE1    3.4357446213652802E+00    6.2328593238004011E+00    2.6849006818139280E+01
FE1    3.2063883643976526E-01    2.8679742287772654E+00    2.6870712066899912E+01
FE2    4.3317754934629722E+00    2.1426715920973436E+00    1.9021595581946958E+01
FE2   -1.3164085844180695E+00    7.5367436634113085E+00    2.4749609294103944E+01
FE1   -1.0604474654369820E+00    7.1570395722455409E+00    2.0807952338144442E+01
FE1    2.1279847877726605E+00    7.4121436963963356E+00    2.4634429383987303E+01
FE1   -1.0349612183900494E+00    4.0136853035481765E+00    2.4690699970045095E+01
FE2    5.5598314214539668E-01    5.6261960899358368E+00    1.8991152080482507E+01
FE2    3.8093694287712312E+00    5.8878301209277337E+00    2.2986016218593097E+01
FE2    5.8771537503725979E-01    2.4065366767477534E+00    2.2879603777853887E+01
FE2    3.8802244711252327E+00    2.8031422145321887E+00    2.6962850922216028E+01
FE2    3.0237982033882349E+00    3.5839414564783945E+00    1.6846708179957467E+01
O   -1.9298487722738904E+00    5.8385728344509982E+00    2.7719865733651005E+01
O    9.7363105054716548E-01    7.2990945807869663E+00    1.5854106859347976E+01
O    4.2985920572879435E+00    7.5135083251814390E+00    1.9934795343884527E+01
O    1.0646707782442963E+00    4.0687611987011643E+00    1.9853149260523715E+01
O    4.3486933166445079E+00    4.2877026560004552E+00    2.3920180534027558E+01
O    2.4831034683920289E-01    7.2267881816079509E+00    2.9250004285954233E+01
O   -1.5036950970706076E+00    5.7454072454282477E+00    1.4794033228596405E+01
O    2.2131234791269740E+00    6.2662497449596302E+00    1.8535323679672864E+01
O   -9.5452777383935483E-01    2.9379791711728211E+00    1.8680976459555307E+01
O    2.3174908975313775E+00    3.1268556749723628E+00    2.2616436779607152E+01
O   -8.2300687263972050E-01    7.9800746606199944E+00    2.6499874834588002E+01
O   -7.2766263354524883E-03    5.2635740875986761E+00    1.7155218164436924E+01
O    3.2288622144138848E+00    5.4510521001043690E+00    2.1198972457818787E+01
O    1.5361615535812473E-01    1.9590270863061454E+00    2.1046979337460698E+01
O    3.2013841172430633E+00    2.1883772937134434E+00    2.5162183601748783E+01
O    2.5218520522429841E+00    5.1611598570532919E+00    1.5714427155690194E+01
O   -8.4833288739082902E-01    1.5061987572232438E+00    1.5729010472356464E+01
O    2.5455005093636229E+00    1.8607616203505066E+00    2.0017378436456632E+01
O    4.5673431831487687E-01    7.7319985119028400E+00    2.3846424386673807E+01
O    3.8247476086849415E+00    8.0679817358859260E+00    2.7615368923625027E+01
O    5.7214972116391383E-01    4.5849796855407572E+00    2.7913336710084305E+01
O    4.4272411822336855E+00    6.3100518000301564E+00    1.7199965186928900E+01
O    1.3118883039002283E+00    2.8674160949951655E+00    1.7212799112368899E+01
O    4.5523845545024901E+00    3.0315826537852648E+00    2.1137920203626127E+01
O   -1.5043311600542433E+00    6.6164955985692897E+00    2.2626732701858998E+01
O    1.7140347105294853E+00    6.7874229004118689E+00    2.6477126045236215E+01
O   -1.4370179941127357E+00    3.3940868668833786E+00    2.6516384145911328E+01
O    3.4839766154680092E+00    7.4848465969906925E+00    1.4428240784820119E+01
O    4.6757333326351253E-01    4.0744948997377017E+00    1.4641634207200658E+01
O    3.5858855661838143E+00    3.9339609492241130E+00    1.8705935650772350E+01
O   -5.9860993674689522E-01    5.7153246429759470E+00    2.5231477127093974E+01
O    2.8238914281771632E+00    5.8561101477883382E+00    3.0187207314161878E+01
O   -6.5498233276080020E-01    2.0343303835645647E+00    3.0246284348338008E+01
O   -1.2835772496450240E+00    5.3793483335028434E+00    1.9805534159692968E+01
O    2.0005349358948643E+00    5.5695546170259451E+00    2.3796147444553043E+01
O   -1.2320320558150815E+00    2.1149952233266482E+00    2.3833689624989294E+01
O    1.9981744392462633E+00    2.2665868556632329E+00    2.7712201237581922E+01
O    4.6772655354005721E+00    3.6515001703646450E+00    1.5800438883812950E+01
O    7.7094227732448450E-01    6.4458032097118867E+00    2.1162676757770566E+01
O    3.9046120172428931E+00    6.7698406143745986E+00    2.4996949930383821E+01
O    7.0205346340177532E-01    3.3354833671650339E+00    2.4990120288117684E+01
O    4.5356522954693679E+00    3.8270160996203155E+00    2.9137681909914829E+01
O    3.3009404109788933E+00    3.1323810758144477E+00    1.2598176931772782E+01
O   -1.4167293489487381E-01    7.4705617181644737E+00    1.8565428089269513E+01
O    2.9955326824854649E+00    7.6399358518249061E+00    2.2571102883867223E+01
O   -2.5390634497787157E-01    4.1628415899228601E+00    2.2557465785279369E+01
O    3.0703304850881641E+00    4.4636961889133806E+00    2.6540421294621222E+01
O    3.7496523963265487E+00    1.7575249416165806E+00    1.7327289889652629E+01
H    1.1545420523710986E-01    2.5175914139628133E+00    3.0692405689489572E+01
H   -4.1942608787718511E-01    7.7706263508322655E+00    2.9775387838612616E+01
H    3.3694013319187941E+00    6.4100189277056856E+00    2.9612145824331364E+01
H    4.9854205097480948E+00    4.4880011719259745E+00    2.8440889191569994E+01
H    1.5433930233964530E+00    4.5427120545789270E+00    2.7867572492203411E+01
H    4.8900303789279018E+00    7.9812583837991582E+00    2.7607559212408635E+01
H    9.9915530431481359E-01    8.2505337174492350E+00    1.5555791530407554E+01
H    4.6895910778202090E+00    2.8743101433413374E+00    1.5231867041665177E+01
H   -1.9280072123458878E+00    6.1748941567597022E+00    1.4004143046977534E+01
H    1.1904429220551749E+00    4.4698226828632865E+00    1.5047050856750692E+01
H    3.7396092389451976E+00    3.9638629977759949E+00    1.2530046974440596E+01
H    4.4338087713399394E+00    7.6435439518303276E+00    1.4864732660376838E+01
H    5.2530594555005106E+00    3.2350316282152836E+00    2.9428300836230502E+01
H    1.7241339651229370E+00    1.4687230313391113E+00    2.8212368260432019E+01
H   -1.8167340712957616E+00    6.5151425709185506E+00    2.8432499134560565E+01
H    6.4420150033155121E-01    6.5550558912528016E+00    2.9799023235266294E+01
H    3.2639884784081028E+00    4.9598961244880941E+00    3.0233015067895170E+01
H   -1.4977018679329357E+00    2.1128928042246957E+00    3.0739582398393136E+01
H   -3.4476843795718831E-02    1.8307319689124493E+00    1.5235488675388924E+01
H    3.2058559609719475E+00    5.1318170761638315E+00    1.5025678457773823E+01
H    2.4089505642506164E+00    3.3766244271635260E+00    1.2200733460569511E+01
H   -1.9162406469287281E+00    4.8255237067180925E+00    1.4956616886339775E+01
H   -1.3014103872759863E-01    4.8737356391479354E+00    1.4520575362199516E+01
H    3.2865281384003588E+00    8.1642813837517441E+00    1.3779415790424066E+01
OW    1.2906075574035379E+01    5.1204571862562860E+00    1.0466751135421732E+00
HW    1.2586356387840976E+01    4.5186402527666960E+00    3.7862530351019175E-01
HW    1.3855532061990163E+01    5.0209215318119655E+00    1.0569440177704437E+00
OW    7.9771257622497238E-01    2.6418983352439591E+00    1.2379956645415634E+01
HW    4.6856018820276468E-01    3.0761822195298252E+00    1.3298161486124734E+01
HW   -5.4054107665004548E-02    2.6819697233202424E+00    1.1831669676995382E+01
OW    4.6146254724215394E+00    6.8986664700959519E+00    7.1082239386585506E+00
HW    5.3925701501943761E+00    6.4528894634611840E+00    6.7527863640878421E+00
HW    3.8487872594588954E+00    6.7650462056184582E+00    6.5886857682696247E+00
OW    8.5086380714712426E+00    5.2782264952030884E+00    1.9487127126085786E+00
HW    9.1158758065642616E+00    6.0606021513468242E+00    1.8300237573740410E+00
HW    8.4950978780128370E+00    5.1049983499602174E+00    2.8750421754236490E+00
OW    1.0638922589595585E+00    4.6645446900572931E-03    1.2990836299933452E+01
HW    7.2599710775696380E-01    8.5150334391902438E-01    1.2653401178191769E+01
HW    1.0094106535222065E+00    9.4468986724518214E-02    1.3962381733983502E+01
OW    1.1841206024363224E+00   -1.6480623356388364E+00    8.3717866583367151E+00
HW    1.7164743113460172E+00   -1.8173562529787559E+00    9.2504919430014017E+00
HW    1.7601538843128677E+00   -2.0062318556916519E+00    7.7687710557810128E+00
OW    3.4299560317861002E+00    2.9481008966682740E+00    7.2438227026837252E+00
HW    4.2442367765050468E+00    2.8268877260199199E+00    7.7685045798785533E+00
HW    2.8379717064528793E+00    2.3137422943612043E+00    7.6624977402622632E+00
OW    8.6315464555597767E+00    9.3587734406524348E+00    3.3353903318242031E+00
HW    8.3933954235464796E+00    8.9721678320749430E+00    4.2358155042493966E+00
HW    9.2474618550689129E+00    1.0087549344977736E+01    3.5298318578463039E+00
OW    3.0782443427417721E+00    4.3591135196561739E+00    4.9237318867221349E+00
HW    3.7769752667994223E+00    4.8964905554737710E+00    4.5618844957462921E+00
HW    3.3511500526391593E+00    3.8590181208704166E+00    5.7540804551717004E+00
OW    5.6542928629126061E+00    3.3218380899381406E+00    1.1187779752802083E+01
HW    4.7922133667758615E+00    2.9241515132343832E+00    1.1206581106980368E+01
HW    5.7588806982520602E+00    3.3243043636143956E+00    1.0150085447823665E+01
OW    1.9338825994749231E+00    9.1122428212280617E+00    9.8812998983484839E+00
HW    1.3592963598948997E+00    9.1759140770705301E+00    1.0671364122801194E+01
HW    2.6356108916233891E+00    8.3740103563378359E+00    1.0016854379024393E+01
OW    3.7053157996231785E+00    7.0342045133231732E+00    9.7155616284126260E+00
HW    4.4214703874318602E+00    6.7127220428381458E+00    1.0320312855369572E+01
HW    4.0937749353292725E+00    6.9010987824306822E+00    8.8224460676714784E+00
OW    6.7654184146230145E+00   -1.7890170335121860E+00    5.7875214424882531E+00
HW    6.4535409994404107E+00   -1.3646038207094682E+00    4.9693233858617880E+00
HW    6.5683282188391292E+00   -2.7550705436513687E+00    5.7615227454175493E+00
OW    5.2438993221626014E+00    5.9154614011477715E+00    1.1950142800276950E+01
HW    5.4288381961035341E+00    4.9853210572720066E+00    1.1749233165785936E+01
HW    6.0531861877347950E+00    6.1882853640751270E+00    1.2435241414788967E+01
OW    8.0346320254751369E-01    1.1412590197944510E+00    8.3092743197081180E+00
HW    7.7974835018513855E-01    1.8232059344963794E-01    8.3083319469218946E+00
HW    1.4036449322300231E+00    1.4608611878913442E+00    9.0446368657545833E+00
OW    5.8109558543939688E+00    3.1537360964614924E+00    8.5872335026851463E+00
HW    6.3927745157222997E+00    2.4651470990708853E+00    8.1516316072214234E+00
HW    6.3601740181486486E+00    3.9777567001579426E+00    8.2573643624012956E+00
OW    9.3670495689597040E+00    6.8789439197650575E+00    5.2162022684035367E+00
HW    8.4618351581787419E+00    7.2426871636140779E+00    5.3797746495074090E+00
HW    9.3161537129605190E+00    5.9154626951472844E+00    5.2246114472261249E+00
OW    1.9683678386589210E+00    5.1160935362145139E+00    1.0591935877277205E+01
HW    1.7011083934533273E+00    5.7889956735272659E+00    1.1230528220762364E+01
HW    2.8053356476500699E+00    5.5115054037616256E+00    1.0229077151401821E+01
OW    2.8895938954944356E+00    3.8512704690096613E+00    3.3838654258258266E+01
HW    3.4343067018384401E+00    3.8854350026323514E+00    3.3036717709335313E+01
HW    3.2277783621722280E+00    2.9741844665080923E+00    3.4180251609989611E+01
OW   -1.3660129807223576E+01    1.1844634570804686E+01    3.5633483781686351E+01
HW   -1.4412811418422114E+01    1.1441289142022246E+01    3.5160127619293661E+01
HW   -1.2975033362394258E+01    1.1564984790613948E+01    3.5039387446060822E+01
OW    6.3976214761512051E-01    1.3465970874050419E+00    3.4084118160066197E+01
HW   -8.9406952676403084E-02    1.9000788866428009E+00    3.3699864530449474E+01
HW    4.7600626277637192E-01    1.2868145438276224E+00    3.5023373062044492E+01
OW    1.9216373025684891E+01    8.8246992001433462E+00    4.1211661781329774E+01
HW    1.8296850971190377E+01    8.9830270712835940E+00    4.1473034129420867E+01
HW    1.9104618861052295E+01    8.0302899849292739E+00    4.0721207759619482E+01
OW    9.4371412708415536E-01    6.5693497178249336E+00    3.2192367222761114E+01
HW    1.9201833220273721E+00    6.4656302610569805E+00    3.2260519999691361E+01
HW    7.6043238660174761E-01    7.2143193769037062E+00    3.2908516506187460E+01
OW    1.7459245871808005E+00    3.1240493160426901E+00    3.0405743486983301E+01
HW    2.2046297290167685E+00    3.0938829665437293E+00    2.9533439788266211E+01
HW    1.6112284666136349E+00    4.0827050195419634E+00    3.0492279804147884E+01
OW    3.0977886092850695E+00    8.1338179084322419E+00    3.4113895639027753E+01
HW    2.2804932982424737E+00    7.7203908983836618E+00    3.4438398491356857E+01
HW    3.5916980393499833E+00    8.1657319553995524E+00    3.4956656399127723E+01
OW    5.5600851580935426E+00   -1.0217318811994551E+00    3.2361604231528851E+01
HW    4.8496454536375371E+00   -7.9175304858985474E-01    3.1775954510888109E+01
HW    6.2948648717415914E+00   -4.3572495958488905E-01    3.2179622538588866E+01
OW    1.7617708282534686E+01    2.9720984947697668E+00    4.2533189866751030E+01
HW    1.7755596703666715E+01    3.8923250307784603E+00    4.2665139823388245E+01
HW    1.6660104886397054E+01    2.7822807408952634E+00    4.2652946558180339E+01
OW   -9.0375223638291646E-01    1.0797496075688052E+01    3.3340924302072821E+01
HW    5.3915764416244481E-02    1.1028245416437695E+01    3.3072524363498744E+01
HW   -1.5225097421679885E+00    1.1409014464047106E+01    3.2822183463750868E+01
OW    4.2467814608103662E+00    2.3103240008347505E+00    3.1739804080925371E+01
HW    4.0280426311573843E+00    1.5855082069382951E+00    3.2329038803285492E+01
HW    3.4511092479485228E+00    2.4835804128706656E+00    3.1243118868363879E+01
OW    4.9638223915963738E-02    1.3908349162531721E+00    3.6766084760020341E+01
HW    6.5845735459606938E-02    2.2168410764382100E+00    3.7295338242368928E+01
HW    6.9926143221081671E-01    8.1842562504118632E-01    3.7129532852283745E+01
OW    1.4237128539553209E+01    1.0798299324282796E+01    4.3247844982153502E+01
HW    1.3957300933838207E+01    1.0807396103775934E+01    4.2270329475835041E+01
HW    1.4147160783867410E+01    9.8611343312250579E+00    4.3444126241051222E+01
OW    7.7868135150469602E+00    3.5476320930220462E+00    3.8202919644163565E+01
HW    8.6727037767074453E+00    3.1956559496915098E+00    3.7962212350500060E+01
HW    7.9013825423409845E+00    4.4860195451561813E+00    3.7939709812931390E+01
OW    3.5646919895910281E+00    5.7245350452180750E+00    3.8298809117824575E+01
HW    4.2005504109461738E+00    5.9497841648922236E+00    3.9009626904873286E+01
HW    3.5778833262530592E+00    4.7428783973804842E+00    3.8307437979762561E+01
OW    1.3596441110303649E+01    8.0046975127200675E+00    4.3252160583094508E+01
HW    1.2985768240714687E+01    8.3146897580153070E+00    4.2541148807806628E+01
HW    1.3188035904958754E+01    7.4183254770075129E+00    4.3887169622395653E+01
OW    4.0627845434933372E+00    7.7673814863970705E+00    3.6695193704605870E+01
HW    4.0000112716561773E+00    6.8795396007773775E+00    3.7156725620098555E+01
HW    5.0359562967055709E+00    7.9604644677824945E+00    3.6652155358610294E+01
OW    1.4985654425261082E+01    8.0573234718430609E+00    4.0059759851788741E+01
HW    1.4489584221536438E+01    7.4252373121928095E+00    3.9530134916509027E+01
HW    1.4890714564811701E+01    7.5753079626034072E+00    4.0891558677725293E+01
OW    1.2494678903773833E+01    5.9833046310746045E+00    4.5034480603687456E+01
HW    1.2378815406086284E+01    6.4563453195808505E+00    4.5884995050135217E+01
HW    1.2454599576137465E+01    5.0273700481090726E+00    4.5070451647592058E+01
OW    1.2470616605872870E+01    2.2918180362438521E+00    4.7727002424921965E+00
HW    1.1944770495720284E+01    1.9449286307107001E+00    5.5308208369920839E+00
HW    1.2427990252184964E+01    1.7112548829126433E+00    3.9870019387841702E+00
OW    1.2161624250348426E+01    3.8195951155548657E+00   -1.3144582610113709E+00
HW    1.1778250390882089E+01    2.9091821093883827E+00   -1.4732419105322814E+00
HW    1.1514255163935839E+01    4.4155467667688431E+00   -1.7454478898461985E+00
OW    1.4211760457808349E+01    3.1637132800583352E+00    4.6990567083365988E+01
HW    1.3590394742906236E+01    3.8489098489772551E+00    4.7404605645582507E+01
HW    1.4846313304747026E+01    3.5523033652634193E+00    4.6367194178919100E+01
OW    1.1892010764096909E+01    6.0394345659374071E+00    3.4309627235132916E+00
HW    1.2257389443353073E+01    5.6436417191216544E+00    2.5874303363773024E+00
HW    1.1071470379659358E+01    6.5134137495496187E+00    3.2409767349405150E+00
OW    2.5599897020150810E+00    9.6103698592477258E+00    3.7985474266946845E+01
HW    2.2521317360575104E+00    9.0613636645317310E+00    3.8759975013206351E+01
HW    3.2043014019954197E+00    8.9688421886442971E+00    3.7519892527711498E+01
OW    1.9101728655952908E+01    6.1063980113900485E+00    4.0399987203831323E+01
HW    1.9912350871801777E+01    5.5529612177053940E+00    4.0152171512143376E+01
HW    1.8803811525389833E+01    5.9269824021758737E+00    4.1307839986160609E+01
OW    8.1311371246276849E+00    6.4868644485532361E+00    3.7476485754187621E+01
HW    8.2266625347518492E+00    5.8887624920582784E+00    3.6674413101789341E+01
HW    8.9234683237117114E+00    6.4035680094770413E+00    3.8013841623275191E+01
OW    1.1564163572618675E+01    4.3346828052051238E+00    5.0762694441718772E+01
HW    1.1507374181417710E+01    4.0782042142237351E+00    5.1748117816313481E+01
HW    1.0637032252828307E+01    4.4840551059409686E+00    5.0431842012119738E+01
OW    1.8740118699718312E+01   -1.3719855699253043E+00    4.2818785894190782E+01
HW    1.9273675777319916E+01   -1.1596323941988964E+00    4.3622134167996116E+01
HW    1.7966437716989830E+01   -7.7565629217805687E-01    4.2994275757200334E+01
OW    1.3865874186303397E+01    4.2210737332916493E+00    4.0757392540883707E+01
HW    1.3252406471211774E+01    3.4712375751597979E+00    4.0865066517000812E+01
HW    1.4401351845118930E+01    3.8466183115394750E+00    3.9972177893286329E+01
     &END COORD
     &VELOCITY
          -4.6696147205800848E-05   -5.6304323202269921E-05    5.9141235471362849E-05
           7.6358300168571886E-05    2.7415915427336840E-05   -2.2038641525096285E-05
           8.2186221594568421E-05   -4.1110094086515879E-05   -9.6476432360495441E-06
          -6.8294121948107503E-05    3.8405336721823177E-05    1.6694561069588901E-05
           1.3010653868059241E-04   -7.8287682246807318E-06    4.2387108827290854E-06
           2.6115817993536035E-05   -6.3983325213784844E-05   -3.2640645085661645E-05
          -2.3773674049505614E-05   -1.4970527442712231E-05   -4.1667368236611897E-05
          -3.5363937515395686E-05   -4.4895052308804982E-05   -7.7372192045054847E-06
           6.3320275402560671E-05    5.4445066308252229E-05   -2.3487189368794307E-05
          -1.0794154395386787E-04   -3.1564757066589192E-05   -1.4700649630810901E-05
          -6.7189027430222031E-05    3.6608017625151554E-05   -6.6177994104086118E-05
           6.5404429600235451E-06    2.2516348512731352E-05   -3.7796661914272551E-06
           1.5904048205822369E-05    9.1305444119064964E-05   -3.2745999420724326E-05
          -1.0410220269942296E-04   -4.5239493744497136E-05   -1.9710232677602872E-05
          -1.0109624294661376E-05    3.0580791381677253E-05    8.1813562557335917E-05
           9.9090013623673243E-06   -9.6792035735184157E-05   -1.8525304389752508E-05
          -7.0562180189225843E-06    4.7561870636437071E-05    7.7188910120946225E-05
           9.8888682797963724E-05    2.8232281296165824E-05    8.9957559806863293E-05
           4.1997658174031956E-05   -5.4648215151190649E-05    1.0517237296780046E-04
           8.6090307913510658E-05    2.5131469231110439E-05   -3.1762197366401859E-05
           6.1365804827242252E-05   -5.5557813778974081E-05    2.1241980135849586E-05
          -7.6077557431734842E-05   -2.7903220333688029E-05   -6.9003412142742856E-05
           2.7966358919996385E-06    5.7536720629949362E-05    1.4323064121926103E-04
          -2.3422388668349343E-05   -9.0976239444287170E-05    1.6076190833014148E-04
          -1.3581975310252115E-04   -1.0204518798960790E-06    1.3687924480165336E-04
           7.0889799499024661E-05    3.6061705075211228E-05    3.1370803060917196E-06
          -1.7774062969511540E-04    1.7349183877930216E-05   -1.9999617071975515E-04
           8.1287499113393271E-05    3.9723800224709588E-05    1.4871535646789229E-04
          -5.2253618916892477E-05   -3.3754963768078543E-05   -1.7739140986915904E-04
           1.8545165488385217E-04    1.5929939641643113E-04    3.2600387016200188E-05
           2.2339892603356001E-04    5.2706491884341687E-04    3.0877608785376053E-04
          -2.1513476307844642E-04    2.0959585934183196E-04    3.7306892094826752E-04
           7.5100450774487869E-05    2.3278853993440011E-04    3.2198959282222138E-05
          -4.7649189914759860E-05   -1.0687194773405711E-04   -4.8348052717252491E-05
          -3.9448973023355362E-04    3.3736960655827927E-05   -1.1129878845380286E-04
          -1.2902800861280123E-04   -5.6753171942862363E-05    1.1252987156986572E-05
          -1.8217728111012617E-04   -7.1876229672566733E-05   -1.7804505929753977E-04
          -1.3231575062418361E-04   -1.0752063851266783E-04    9.8183248620728841E-06
           1.8491812078096477E-04    1.8828380059624614E-04    4.2366813546929592E-04
           5.3352988022489553E-07    1.0038566832208101E-04    8.7240644247806590E-05