 # Version information for this restart file 
 # current date 2016-07-12 17:59:08.022
 # current working dir /fs3/e05/e05/gfvr/rcut-fixed-A-3189f38c0b82e789c60773310b94a123/run-1
 # Program compiled at                              Tue Feb  2 22:08:17 GMT 2016
 # Program compiled on                                                eslogin008
 # Program compiled for                                                   ARCHER
 # Source code revision number                                         svn:16458
 &GLOBAL
   PROJECT_NAME hematite
   OUTPUT_FILE_NAME ./out/base
   RUN_TYPE  MD
 &END GLOBAL
 &MOTION
   &MD
     ENSEMBLE  NPT_F
     STEPS  10000
     TIMESTEP     4.9999999999999994E-01
     STEP_START_VAL  695
     TIME_START_VAL     3.4749999999999375E+02
     ECONS_START_VAL    -4.5589206925946146E+03
     TEMPERATURE     3.3000000000000006E+02
     &BAROSTAT
       PRESSURE     1.0129999999999999E+00
       &VELOCITY
            -2.2130453097379471E-06   -5.2462778993080102E-08   -2.6685494710878400E-07   -5.2462778993080108E-08 \
            -2.5789907394580692E-06   -3.6331770872036536E-07   -2.6685494710878400E-07   -3.6331770872036536E-07    1.9809106446090210E-06
       &END VELOCITY
       &MASS
             4.2330639099311793E+08    4.2330639099311793E+08    4.2330639099311793E+08    4.2330639099311793E+08 \
             4.2330639099311793E+08    4.2330639099311793E+08    4.2330639099311793E+08    4.2330639099311793E+08    4.2330639099311793E+08
       &END MASS
       &THERMOSTAT
         TYPE  CSVR
         &CSVR
           TIMECON     9.6755373060191385E-01
           &THERMOSTAT_ENERGY
                 1.0301858940356948E-01
           &END THERMOSTAT_ENERGY
           &RNG_INIT
Wiener process for Thermostat # 1        1 F T F  -8.3162194974364792E-02         220206794.0        4083354864.0         918003739.0        2168250057.0        1947174632.0        2621555453.0             12345.0             12345.0             12345.0             12345.0             12345.0             12345.0             12345.0             12345.0             12345.0             12345.0             12345.0             12345.0
           &END RNG_INIT
         &END CSVR
       &END THERMOSTAT
     &END BAROSTAT
     &THERMOSTAT
       TYPE  CSVR
       REGION  GLOBAL
       &CSVR
         TIMECON     9.9999999999999982E+00
         &THERMOSTAT_ENERGY
               7.7375994960448113E-01
         &END THERMOSTAT_ENERGY
         &RNG_INIT
Wiener process for Thermostat # 1        1 F T F  -3.8269838606632345E-01        2078300290.0         936219383.0        2798103897.0        1014923487.0        3901495539.0        2779694929.0             12345.0             12345.0             12345.0             12345.0             12345.0             12345.0             12345.0             12345.0             12345.0             12345.0             12345.0             12345.0
         &END RNG_INIT
       &END CSVR
     &END THERMOSTAT
     &AVERAGES  T
       &RESTART_AVERAGES
         ITIMES_START  1
         AVECPU     1.2227293460028909E+02
         AVEHUGONIOT     0.0000000000000000E+00
         AVETEMP_BARO     5.8733872521097715E+02
         AVEPOT    -4.5600720217168764E+03
         AVEKIN     3.9509117545027644E-01
         AVETEMP     3.5242874807167044E+02
         AVEKIN_QM     0.0000000000000000E+00
         AVETEMP_QM     0.0000000000000000E+00
         AVEVOL     1.5670362252133214E+04
         AVECELL_A     1.3668994230774937E+01
         AVECELL_B     1.3567415815220762E+01
         AVECELL_C     8.5210205007313121E+01
         AVEALPHA     8.6237889082074872E+01
         AVEBETA     9.4560627074197185E+01
         AVEGAMMA     9.4922529957036488E+01
         AVE_ECONS    -2.6485755936019237E+00
         AVE_PRESS    -9.4913999902092037E+03
         AVE_PXX    -1.5258677719243629E+04
       &END RESTART_AVERAGES
     &END AVERAGES
   &END MD
   &PRINT
     &TRAJECTORY  ON
       FILENAME ./traj/pos
       FORMAT  DCD_ALIGNED_CELL
       &EACH
         MD  1
       &END EACH
     &END TRAJECTORY
     &VELOCITIES  ON
       FILENAME ./traj/vel
       FORMAT  DCD
       &EACH
         MD  1
       &END EACH
     &END VELOCITIES
     &FORCES  ON
       FILENAME ./traj/for
       FORMAT  DCD
       &EACH
         MD  1
       &END EACH
     &END FORCES
     &RESTART  ON
       FILENAME ./restart/base
       &EACH
         MD  5
       &END EACH
     &END RESTART
   &END PRINT
 &END MOTION
 &FORCE_EVAL
   METHOD  QS
   STRESS_TENSOR  ANALYTICAL
   &DFT
     BASIS_SET_FILE_NAME ../input/BASIS_ADMM
     BASIS_SET_FILE_NAME ../input/BASIS_MOLOPT
     POTENTIAL_FILE_NAME ../input/GTH_POTENTIALS
     UKS  T
     CHARGE  0
     &SCF
       MAX_SCF  40
       EPS_SCF     1.0000000000000001E-05
       SCF_GUESS  ATOMIC
       &OT  T
         MINIMIZER  DIIS
         PRECONDITIONER  FULL_SINGLE_INVERSE
       &END OT
       &OUTER_SCF  T
         EPS_SCF     1.0000000000000001E-05
         MAX_SCF  600
       &END OUTER_SCF
     &END SCF
     &AUXILIARY_DENSITY_MATRIX_METHOD
       ADMM_PURIFICATION_METHOD  MO_DIAG
       METHOD  BASIS_PROJECTION
     &END AUXILIARY_DENSITY_MATRIX_METHOD
     &QS
       EPS_DEFAULT     9.9999999999999998E-13
     &END QS
     &MGRID
       CUTOFF     4.0000000000000000E+02
     &END MGRID
     &XC
       DENSITY_CUTOFF     1.0000000000000000E-10
       GRADIENT_CUTOFF     1.0000000000000000E-10
       TAU_CUTOFF     1.0000000000000000E-10
       &XC_FUNCTIONAL  NO_SHORTCUT
         &PBE  T
           SCALE_X     0.0000000000000000E+00
           SCALE_C     1.0000000000000000E+00
         &END PBE
         &XWPBE  T
           SCALE_X    -1.2000000000000000E-01
           SCALE_X0     1.0000000000000000E+00
           OMEGA     1.1000000000000000E-01
         &END XWPBE
       &END XC_FUNCTIONAL
       &HF
         FRACTION     1.2000000000000000E-01
         &SCREENING
           EPS_SCHWARZ     1.0000000000000000E-04
           SCREEN_ON_INITIAL_P  F
         &END SCREENING
         &INTERACTION_POTENTIAL
           POTENTIAL_TYPE  SHORTRANGE
           OMEGA     1.1000000000000000E-01
         &END INTERACTION_POTENTIAL
         &MEMORY
           EPS_STORAGE_SCALING     1.0000000000000001E-01
           MAX_MEMORY  2400
         &END MEMORY
       &END HF
       &VDW_POTENTIAL
         POTENTIAL_TYPE  PAIR_POTENTIAL
         &PAIR_POTENTIAL
           TYPE  DFTD3
           PARAMETER_FILE_NAME ../input/dftd3.dat
           REFERENCE_FUNCTIONAL PBE0
         &END PAIR_POTENTIAL
       &END VDW_POTENTIAL
     &END XC
     &PRINT
     &END PRINT
   &END DFT
   &SUBSYS
     &CELL
       A     7.0545099034587642E+00   -2.2703683436363843E-02   -3.9530782946030053E-02
       B    -5.5676925219305795E-01    6.9601863537998865E+00   -5.3066131316065877E-02
       C    -3.4922105634947043E+00    2.6448034494386214E+00    4.5071591756343409E+01
       PERIODIC  XYZ
       MULTIPLE_UNIT_CELL  1 1 1
       &CELL_REF
         A     7.4100000000000001E+00    0.0000000000000000E+00    0.0000000000000000E+00
         B    -5.6075082412935573E-01    7.3887521621203573E+00    0.0000000000000000E+00
         C    -3.4053693773037792E+00    3.1567202268075030E+00    4.4759787497415424E+01
         MULTIPLE_UNIT_CELL  1 1 1
       &END CELL_REF
     &END CELL
     &COORD
FE1    4.0909082360295717E+00    5.7299282876631281E+00    1.8997795418908733E+01
FE1    9.3797607577026776E-01    2.1424021421750314E+00    1.9108802445763498E+01
FE1    4.1023217016597338E+00    2.3865366898157818E+00    2.3035748258718488E+01
FE2   -4.0977134248262473E-03    6.2263284746703613E+00    2.7038931719343704E+01
FE2   -8.2632207867180429E-01    6.9018668056393961E+00    1.6770391104616998E+01
FE2    2.4602056143002442E+00    7.1524106417726001E+00    2.0743495513150538E+01
FE2   -8.0823354345478537E-01    3.7230969813696615E+00    2.0741199723556200E+01
FE2    2.4368123847001883E+00    3.9321676020237710E+00    2.4734747663083557E+01
FE1    2.7332913392134208E+00    6.9356267563786433E+00    1.6550151087834557E+01
FE1   -5.0739297787275484E-01    3.4159417523419799E+00    1.6871368598647809E+01
FE1    2.7298387735368759E+00    3.7059299886437458E+00    2.0787141192096406E+01
FE1    2.8393173937668537E-01    5.9018785388756898E+00    2.2951753888032034E+01
FE1    3.4302205903551357E+00    6.2321231276980527E+00    2.6858790050163694E+01
FE1    3.0506878990530628E-01    2.8556211709115744E+00    2.6880177966657008E+01
FE2    4.3278884072098895E+00    2.1432078076226073E+00    1.9039167448859502E+01
FE2   -1.3192276032584211E+00    7.5165271407328547E+00    2.4757814393661768E+01
FE1   -1.0642132476325676E+00    7.1539271963681657E+00    2.0823321856994998E+01
FE1    2.1337575767745425E+00    7.4116185868807767E+00    2.4653014607426012E+01
FE1   -1.0371300616072558E+00    4.0063290998198013E+00    2.4716046851851303E+01
FE2    5.6247647497269515E-01    5.6247903409944069E+00    1.8993316503703586E+01
FE2    3.8135043081215421E+00    5.8759158115280643E+00    2.2999158386631251E+01
FE2    5.7454332608011593E-01    2.4000178650619186E+00    2.2883940116560613E+01
FE2    3.8733083208799779E+00    2.8024963582851345E+00    2.6993000861491296E+01
FE2    3.0158204869729288E+00    3.5685488266379983E+00    1.6876309271498048E+01
O   -1.9383176292932494E+00    5.8201525463755770E+00    2.7755030019718387E+01
O    9.7485806036064415E-01    7.2963258632400931E+00    1.5852973969052124E+01
O    4.2744013366772640E+00    7.5075789979600724E+00    1.9918289846237101E+01
O    1.0721659482008394E+00    4.0638536298124830E+00    1.9880789905064081E+01
O    4.3316927018557925E+00    4.2779133381315670E+00    2.3900710520717912E+01
O    2.6431800798151400E-01    7.2332358437280826E+00    2.9255678491416987E+01
O   -1.4792457997003281E+00    5.7957788073257142E+00    1.4825974027275237E+01
O    2.1962732617774612E+00    6.2852841058066193E+00    1.8579815357972560E+01
O   -9.5137729868534737E-01    2.9559346258120720E+00    1.8688813006537860E+01
O    2.3054007359493447E+00    3.1095422711252949E+00    2.2618967491412949E+01
O   -8.7088323931015155E-01    7.9781427088419337E+00    2.6507668021595347E+01
O   -2.8666467295419495E-02    5.2426897815632820E+00    1.7163454161651430E+01
O    3.2092641099808383E+00    5.4360655106746822E+00    2.1184084729592342E+01
O    1.3050430710725552E-01    1.9438986945512169E+00    2.1058537870391060E+01
O    3.2213637552246710E+00    2.2078422857064210E+00    2.5215192932186518E+01
O    2.5166285925946621E+00    5.1592124147154221E+00    1.5729902013374652E+01
O   -8.5616036909048054E-01    1.5115372882252682E+00    1.5740308728827701E+01
O    2.5388746002505083E+00    1.8640151148752198E+00    2.0022930329229350E+01
O    4.6139920700822490E-01    7.7562033023372496E+00    2.3863270584997046E+01
O    3.8651453316568829E+00    8.0439880518112190E+00    2.7685778807651552E+01
O    5.8007165107546699E-01    4.5844841338447146E+00    2.7912474430900172E+01
O    4.4362436727908356E+00    6.3447914584215068E+00    1.7182644359591166E+01
O    1.2781717193468825E+00    2.8571326463283993E+00    1.7238229342764722E+01
O    4.5713889941571200E+00    3.0418608778343001E+00    2.1139340043270440E+01
O   -1.5062235985667425E+00    6.6124181620789857E+00    2.2638170815551472E+01
O    1.7457177984055599E+00    6.7671813587156757E+00    2.6467733036977531E+01
O   -1.4520844188312441E+00    3.3766236834555761E+00    2.6559067734784374E+01
O    3.4891439494600092E+00    7.4687642236283889E+00    1.4397812904642970E+01
O    4.3705471722572453E-01    4.0825107088601102E+00    1.4610096106275783E+01
O    3.5892786344732528E+00    3.9478608513441023E+00    1.8692860244190726E+01
O   -6.0431334613041299E-01    5.6855662295266240E+00    2.5222179654613530E+01
O    2.8232672402268144E+00    5.8849623676696092E+00    3.0191922008687907E+01
O   -6.8827892042564831E-01    2.0437586200476954E+00    3.0264155538670746E+01
O   -1.2794212975309391E+00    5.3798926696885605E+00    1.9801600824693356E+01
O    1.9913836803286769E+00    5.5612593023070422E+00    2.3824285025735417E+01
O   -1.2225568888637282E+00    2.1162427786172642E+00    2.3831690338287462E+01
O    1.9805815784488838E+00    2.2680667588626990E+00    2.7744490910982147E+01
O    4.6727491455687762E+00    3.6384326678404562E+00    1.5805058559555620E+01
O    7.8360775083237200E-01    6.4471871400385750E+00    2.1170926297831762E+01
O    3.8847372037790207E+00    6.7883085414303386E+00    2.5012578623343337E+01
O    7.0181710322427959E-01    3.3234881882961349E+00    2.5006017559387441E+01
O    4.4466770276724237E+00    3.7950875563215285E+00    2.9116089054979060E+01
O    3.2881927377072668E+00    3.1403535332423420E+00    1.2590861551097840E+01
O   -1.7918345368632610E-01    7.4573090147992511E+00    1.8579258566735191E+01
O    2.9911689420688958E+00    7.6422478508113025E+00    2.2599931608999750E+01
O   -2.5937379420624002E-01    4.1626515458132607E+00    2.2570272334438208E+01
O    3.0392666815320215E+00    4.4658008099536870E+00    2.6519099469130065E+01
O    3.7193425114849616E+00    1.7738156658981736E+00    1.7297773535575562E+01
H    3.5432850722733826E-02    2.4876598900522113E+00    3.0683335064825410E+01
H   -4.6214837030260925E-01    7.8447613942803827E+00    2.9590419490855403E+01
H    3.3468530258363400E+00    6.5681910223056494E+00    2.9731937378809711E+01
H    5.0070985001279169E+00    4.3329396424892144E+00    2.8518558179740076E+01
H    1.5543509117906882E+00    4.6352362279512711E+00    2.7950122816693547E+01
H    4.7598781899744456E+00    7.9701227717562348E+00    2.7421142115351625E+01
H    1.1687504952745091E+00    8.2342260377072254E+00    1.5695168205978559E+01
H    4.6922924088679476E+00    2.9467898877119012E+00    1.5123230864734204E+01
H   -2.0328534995145455E+00    5.9372772135128038E+00    1.4029371714319847E+01
H    1.3225439995645025E+00    4.6301012756123985E+00    1.5132918257497897E+01
H    3.7654009685498053E+00    4.0100511262319705E+00    1.2658730962579495E+01
H    4.3094008741032983E+00    7.7553389585544421E+00    1.4820264719124962E+01
H    5.2630031292103530E+00    3.2972228709478637E+00    2.9399640528095627E+01
H    1.8017992118500492E+00    1.5524901437830538E+00    2.8406249985919658E+01
H   -1.7368776678565925E+00    6.4312391526168149E+00    2.8480638901230559E+01
H    5.1108509936632407E-01    6.5221039872718638E+00    2.9899223635064200E+01
H    3.3130348380842713E+00    5.0596145680550322E+00    3.0049057470021108E+01
H   -1.5189419264669024E+00    2.0487938571451947E+00    3.0840726185266494E+01
H   -2.4616196321278744E-01    1.7225940869636034E+00    1.5053965830061065E+01
H    3.2757305696134438E+00    5.1888663970237587E+00    1.5118777648670857E+01
H    2.3850102051516586E+00    3.3351068887671147E+00    1.2329574872654263E+01
H   -1.7877026350747278E+00    4.8591283127765674E+00    1.5019871093208639E+01
H   -8.2545650453005368E-02    4.8935240058618836E+00    1.4494044046006923E+01
H    3.2860464672791210E+00    8.2326912429368821E+00    1.3806208904952841E+01
OW    1.2910943670942391E+01    5.1233327411742602E+00    1.0419824971319851E+00
HW    1.2625219269569703E+01    4.5819539836550129E+00    2.4384096847753753E-01
HW    1.3901776211392560E+01    5.0546095875792014E+00    1.1751746261247558E+00
OW    8.0320141518432719E-01    2.6453927692006727E+00    1.2407737418964059E+01
HW    5.4945180090878976E-01    3.0616808285917294E+00    1.3200826098429275E+01
HW   -3.4750760695659355E-02    2.7329625568582752E+00    1.1910086121591661E+01
OW    4.6047425001369922E+00    6.8986998019487649E+00    7.1112048049719183E+00
HW    5.3906620884503180E+00    6.4602325411603978E+00    6.7081521493593064E+00
HW    3.8415809589934846E+00    6.6988709072496802E+00    6.4557145837369605E+00
OW    8.5417555051763774E+00    5.2665175138309674E+00    1.9396877338153593E+00
HW    9.1324484401428592E+00    6.0472668082266816E+00    1.9019774238501994E+00
HW    8.4317911698396539E+00    5.1140312000826444E+00    2.9196182913457358E+00
OW    1.0368625063800603E+00   -4.1297872055441449E-02    1.3011952427259727E+01
HW    7.3726165689015122E-01    9.0967002016014764E-01    1.2824010786774307E+01
HW    1.0693976308455473E+00    9.1254340312332000E-03    1.3998049135822502E+01
OW    1.2003616549676408E+00   -1.6439653386497626E+00    8.4170900196222327E+00
HW    1.6111760645156143E+00   -1.9554771688878059E+00    9.2308991486341370E+00
HW    1.8028159801483457E+00   -1.9702248929828663E+00    7.6378424695288523E+00
OW    3.3950090179569403E+00    2.9170111469794069E+00    7.2310488337365131E+00
HW    4.2249216052716996E+00    2.8876049501815091E+00    7.7619634864741451E+00
HW    2.8301683134402338E+00    2.3190091334710226E+00    7.7342448036174192E+00
OW    8.6282282189048605E+00    9.3180631235634799E+00    3.3215002940429841E+00
HW    8.3210799308101393E+00    8.9779652369006957E+00    4.1480451820483344E+00
HW    9.2101421963512653E+00    1.0058932107786843E+01    3.5774975526209212E+00
OW    3.0492768328343196E+00    4.3696971292583093E+00    4.9325540936385863E+00
HW    3.7667260345167115E+00    4.9947500842348553E+00    4.6061188682959431E+00
HW    3.2964095232455555E+00    3.8407204946314186E+00    5.7192036661657237E+00
OW    5.6727028726424615E+00    3.3258133296058117E+00    1.1166058686667656E+01
HW    4.8156912991670868E+00    2.8337664528662110E+00    1.1405651262685904E+01
HW    5.7693696170590023E+00    3.3891001488337511E+00    1.0219978495068512E+01
OW    1.9412407642555696E+00    9.1272277047274972E+00    9.8542723567088490E+00
HW    1.3782764088826356E+00    9.2490035948866236E+00    1.0644877424125697E+01
HW    2.5253102087363843E+00    8.3963061663107545E+00    1.0039350326631530E+01
OW    3.6887515829301751E+00    7.0272367570723997E+00    9.7252913789846502E+00
HW    4.4122112680331531E+00    6.7063750454105646E+00    1.0289076448173970E+01
HW    4.0465267168538741E+00    7.0480467540090732E+00    8.7807240104404567E+00
OW    6.7945410510958366E+00   -1.7782870158702890E+00    5.7576352182350563E+00
HW    6.4288689824264562E+00   -1.3259849462464666E+00    4.9489635706019524E+00
HW    6.6612811104912852E+00   -2.7418594095729869E+00    5.7472788029905324E+00
OW    5.2379656266020769E+00    5.9221288703955031E+00    1.1910354490077978E+01
HW    5.3732253027747623E+00    4.9646233304935237E+00    1.1641740449462654E+01
HW    6.0844457050885037E+00    6.1463522702305902E+00    1.2388051973535436E+01
OW    7.7469928856158532E-01    1.1343062709784615E+00    8.2862261770526580E+00
HW    6.7266229703786906E-01    1.4227332146902277E-01    8.3505400178663542E+00
HW    1.3341095880086258E+00    1.4721809005210837E+00    9.0442066094075635E+00
OW    5.8118341972744618E+00    3.1350344250285818E+00    8.5865674485249279E+00
HW    6.3721360575278947E+00    2.4260395234054144E+00    8.2050341930843445E+00
HW    6.2889347065703918E+00    3.8681506749560590E+00    8.1920939932074965E+00
OW    9.3216308548564335E+00    6.8591848146487031E+00    5.2063232682249998E+00
HW    8.4579920631692680E+00    7.2605180718878097E+00    5.3608400148473256E+00
HW    9.2737444882666207E+00    5.8717951129656685E+00    5.2812389963890460E+00
OW    1.9637952645886132E+00    5.1379684845313367E+00    1.0631117901286254E+01
HW    1.6292398506293349E+00    5.7454091640124680E+00    1.1317339092471252E+01
HW    2.6924360912628842E+00    5.5362552485333252E+00    1.0129522713933094E+01
OW    2.9018556893758101E+00    3.8533820438311421E+00    3.3906163688827696E+01
HW    3.4073550329054538E+00    3.7672103699050945E+00    3.3075140546676138E+01
HW    3.1868017593328810E+00    2.9990546140029082E+00    3.4253177368963385E+01
OW   -1.3691220470401522E+01    1.1819581537574818E+01    3.5645696990078449E+01
HW   -1.4379957502753012E+01    1.1377868241211134E+01    3.5092023925382442E+01
HW   -1.2853606369324799E+01    1.1651189738748347E+01    3.5071136497112555E+01
OW    6.1217775104508498E-01    1.2932058233370614E+00    3.4107895977963395E+01
HW    1.1389088835823435E-02    1.9729699349218730E+00    3.3796451104296416E+01
HW    4.3461835772963398E-01    1.2859597162751093E+00    3.5106421735747219E+01
OW    1.9212776289027104E+01    8.8026766230495621E+00    4.1177336544239637E+01
HW    1.8274565293535709E+01    9.0217525476598937E+00    4.1516562452891485E+01
HW    1.9321097384360144E+01    7.9786023889285076E+00    4.0547725760524074E+01
OW    9.3738425573200412E-01    6.5796469076612967E+00    3.2241857646822702E+01
HW    1.9024753622271651E+00    6.6776087627202783E+00    3.2206025310247732E+01
HW    6.3720638980620981E-01    7.2657313301257664E+00    3.2908931484283897E+01
OW    1.6945948700385276E+00    3.1370581616610718E+00    3.0462518937647385E+01
HW    2.0434126397205090E+00    3.0531963417027450E+00    2.9533877370453947E+01
HW    1.5825754978755415E+00    4.1053975354328420E+00    3.0441710482819285E+01
OW    3.0843840251645740E+00    8.1744945102590840E+00    3.4110104556105526E+01
HW    2.2708849894011660E+00    7.7614985094493774E+00    3.4450323317018444E+01
HW    3.5660883637580452E+00    8.1336386835239267E+00    3.4992350158717080E+01
OW    5.5941616507471048E+00   -1.0496605263530427E+00    3.2341630664698364E+01
HW    4.7955154561082773E+00   -9.5669187909658815E-01    3.1767617312838969E+01
HW    6.3349753012594396E+00   -4.5271048640680084E-01    3.2139939299028356E+01
OW    1.7520073981472198E+01    2.9735623512871361E+00    4.2220424987840012E+01
HW    1.7685417951887583E+01    3.9668407840012962E+00    4.2536658300720632E+01
HW    1.6606592670288421E+01    2.8355573631992441E+00    4.2421913815684313E+01
OW   -9.0850938775729539E-01    1.0820364064016790E+01    3.3344599515258402E+01
HW   -2.9003939552168283E-02    1.1015570095815995E+01    3.3163225068733809E+01
HW   -1.4290780179058897E+00    1.1467393988103867E+01    3.2885568776872049E+01
OW    4.2331060669487490E+00    2.2922391411680234E+00    3.1762638985047694E+01
HW    4.0559868235253980E+00    1.5365403990942932E+00    3.2379214041802761E+01
HW    3.3279614708714962E+00    2.4559424831398373E+00    3.1331548935009955E+01
OW    2.9025384333459213E-02    1.3888803551676598E+00    3.6788443639159709E+01
HW    1.8179155842543390E-01    2.2715259554385709E+00    3.7225159320367545E+01
HW    7.7163147905830987E-01    7.0311220702753274E-01    3.7154572129817900E+01
OW    1.4236502482570584E+01    1.0777474228181713E+01    4.3265376048156867E+01
HW    1.4059100235130790E+01    1.0788474326814510E+01    4.2318188643288721E+01
HW    1.4149949098611472E+01    9.8308921396698903E+00    4.3555404951528018E+01
OW    7.8180209120293913E+00    3.5738441270738179E+00    3.8199989205251249E+01
HW    8.7293865787752924E+00    3.2685150867082329E+00    3.7927904313511632E+01
HW    7.8537377542194182E+00    4.4867205817690676E+00    3.7860075440534523E+01
OW    3.5298947348782805E+00    5.7134470415651766E+00    3.8328442399759155E+01
HW    4.1305593216549168E+00    5.8639475630202105E+00    3.9122460449398403E+01
HW    3.3692336478741942E+00    4.7443160493813625E+00    3.8303005867873040E+01
OW    1.3635294533468814E+01    7.9838799779739134E+00    4.3292885994219475E+01
HW    1.2986919759687796E+01    8.2377098438606922E+00    4.2556985668026869E+01
HW    1.3262449120474630E+01    7.2950650194900879E+00    4.3909679862256489E+01
OW    4.0523528590733173E+00    7.7406359653468781E+00    3.6707697048244327E+01
HW    4.0629102826436565E+00    6.8822130746237971E+00    3.7161166394406024E+01
HW    5.0357425225992332E+00    7.9743160757475842E+00    3.6784785444533036E+01
OW    1.4979936405857073E+01    8.0606665591648934E+00    4.0101145462864189E+01
HW    1.4450378452396361E+01    7.5233647635694556E+00    3.9489812619983155E+01
HW    1.5039354484369481E+01    7.6570305944751631E+00    4.0975184811720588E+01
OW    1.2535400314445134E+01    5.9630260780249911E+00    4.5072823742857565E+01
HW    1.2377979097915780E+01    6.4965452164731206E+00    4.5900196102274307E+01
HW    1.2371945586020871E+01    5.0046478933167684E+00    4.5218467392843067E+01
OW    1.2451307830149355E+01    2.3035017713684480E+00    4.7900065956548685E+00
HW    1.1896567008188441E+01    1.8735791818626384E+00    5.4550850656076371E+00
HW    1.2424251326062485E+01    1.6232531618328994E+00    4.0989552922329926E+00
OW    1.2180082661508154E+01    3.7775111191298842E+00   -1.3169164158097184E+00
HW    1.1845964286456564E+01    2.8602381617644506E+00   -1.3720765562390413E+00
HW    1.1491352867367114E+01    4.4316736205184188E+00   -1.6131903900869722E+00
OW    1.4223142880801211E+01    3.1305911115276648E+00    4.7026561412939891E+01
HW    1.3604260328610682E+01    3.8206083170711098E+00    4.7370288349653542E+01
HW    1.4779230450929763E+01    3.6573866963341661E+00    4.6416595912701069E+01
OW    1.1867897211913418E+01    6.0653316780935258E+00    3.4131492201407330E+00
HW    1.2298899435708440E+01    5.6564070500805066E+00    2.6344039551971870E+00
HW    1.1027404580615595E+01    6.4807660590949219E+00    3.1074049185451251E+00
OW    2.5405491984472164E+00    9.5815529143991984E+00    3.8000020097222503E+01
HW    2.2539343967375349E+00    9.1986216193365262E+00    3.8823259376740175E+01
HW    3.1879590228778532E+00    8.9615603464639975E+00    3.7605904983184757E+01
OW    1.9095879116231337E+01    6.1032236482050113E+00    4.0376324298036749E+01
HW    1.9811382773761782E+01    5.4773365616584311E+00    4.0237653669060116E+01
HW    1.8816765432414364E+01    5.9182660438453389E+00    4.1340681942883180E+01
OW    8.1003637774640893E+00    6.4632915509497328E+00    3.7522091044501231E+01
HW    8.1539194482264570E+00    6.0074254264261198E+00    3.6632036482060734E+01
HW    9.0031536168948403E+00    6.4936049329117376E+00    3.7959239935779749E+01
OW    1.1533853499017987E+01    4.3461201034772081E+00    5.0809258255791512E+01
HW    1.1406932581936040E+01    4.2021793757733095E+00    5.1761088051999430E+01
HW    1.0635494665555221E+01    4.5426473261517772E+00    5.0486188658866460E+01
OW    1.8700112315756421E+01   -1.3778360743909606E+00    4.2877357256650988E+01
HW    1.9245990720487480E+01   -1.2309169433633724E+00    4.3693413044224904E+01
HW    1.7921075342745606E+01   -7.9856164481972824E-01    4.3027910892404265E+01
OW    1.3879685039441547E+01    4.1598138036059389E+00    4.0791983163932890E+01
HW    1.3225650672899009E+01    3.4085916797127127E+00    4.0875734459498084E+01
HW    1.4296951406905741E+01    4.0251159819302496E+00    3.9927016712719677E+01
     &END COORD
     &VELOCITY
          -6.5864831803438768E-05   -4.1200957913467879E-05    5.8395743153160672E-05
           6.3001420364242468E-05    7.6468046991975944E-05   -4.2971290556278892E-05
           1.0843982739590892E-04   -2.7659117094062752E-06   -9.1959858136729954E-06
          -6.4357576529641539E-05    7.6349405571953554E-05   -3.0311110410883319E-05
           1.1683726660410496E-04   -3.1022956705850252E-05    4.0012018389462048E-05
           2.2690850611478336E-05   -5.8495412563103765E-05   -2.7237160645258516E-05
          -1.2896428146507468E-05   -1.7834083302099921E-05   -6.7052441527719206E-05
          -2.5371649162007909E-05   -5.9803547435376574E-05   -2.1716395235270490E-05
           7.0505946016264325E-05    8.6482668149034475E-05    4.8793111299296980E-05
          -1.0056767894541077E-04   -1.1479432406911690E-05    2.4864881852659131E-05
          -8.4257195507978069E-05    3.4737185724048191E-05   -7.8101531883262738E-05
           4.2842951057748317E-05    3.3299307737793270E-05    1.7590230022581324E-05
          -1.0707090712470388E-06    3.1991470831216481E-06    2.6921158827251452E-05
          -9.1070096582916463E-05   -8.8062976814460520E-05   -3.6888540440967872E-06
           1.6899021060191438E-05    3.9963459319828513E-05    1.1038927195706292E-04
          -1.0686190768799130E-05   -1.3569864574827767E-04   -3.0082943726105388E-05
          -2.7673295382997224E-05    4.1823047930237208E-05    8.0825852829536482E-05
           5.6330515825371218E-05    7.8451049184699050E-05    4.7730455190992807E-05
          -1.9126281209587401E-06   -6.9631654857296114E-05    1.0141095403267356E-04
           8.6756654558780042E-05    2.4182477190940981E-05   -5.5654506230404627E-05
           8.5416534488347119E-05   -5.3967308747113237E-05    4.8181829476251254E-05
          -7.2670869920573097E-05   -3.0926978785877972E-05   -3.1070480545308318E-05
          -1.6600900896964634E-05    3.3327571438157516E-05    1.4948385656800300E-04
          -4.5273184701014701E-05   -1.3340465974592743E-04    2.4150304811349903E-04
           1.3070268063832807E-04   -1.3237114755566376E-04    2.6436051383743473E-04
           3.3965998449539875E-05   -5.2307400957164052E-06   -8.1608219268595517E-05
          -1.6568313015645898E-04   -8.6192697467465928E-07   -2.0379835085708583E-04
           1.0889358984214341E-04   -5.4418720793968165E-05    2.1619422766204412E-04
          -1.6732780882032378E-04   -5.9736552792593776E-05   -2.9605222276733316E-04
           1.9498821176965322E-04    6.4757620128767554E-05   -1.0374007664871019E-04
           2.1321792257623297E-04    4.7750258706964868E-04    1.5511022275884411E-04
          -2.4519140451197320E-05    2.7276156937259334E-04    3.2652880342888080E-04
           1.1347283893353207E-05    1.4602579849736877E-04   -2.6808149835920132E-05
          -8.4904564225842614E-05   -1.3510943211851923E-04   -5.1474623469121689E-05
          -3.0066162540968056E-04    7.5103855815374896E-05   -2.3074596895271367E-06
          -2.2728044699181564E-04   -2.3308495784129718E-04    2.3775114877868593E-05
          -1.1108000637593004E-04   -1.0713327475079783E-04   -2.2727608247470959E-04
          -2.3333106937517456E-04   -9.9774490823169445E-05    6.1281846833160573E-05
           2.3005710846588551E-04    2.2458409888892534E-04    3.4993639659948938E-04
          -5.6290686625071177E-05   -7.2578717520138096E-06    1.0873011431558273E-04