 # Version information for this restart file 
 # current date 2016-07-12 18:09:26.000
 # current working dir /fs3/e05/e05/gfvr/rcut-fixed-A-3189f38c0b82e789c60773310b94a123/run-1
 # Program compiled at                              Tue Feb  2 22:08:17 GMT 2016
 # Program compiled on                                                eslogin008
 # Program compiled for                                                   ARCHER
 # Source code revision number                                         svn:16458
 &GLOBAL
   PROJECT_NAME hematite
   OUTPUT_FILE_NAME ./out/base
   RUN_TYPE  MD
 &END GLOBAL
 &MOTION
   &MD
     ENSEMBLE  NPT_F
     STEPS  10000
     TIMESTEP     4.9999999999999994E-01
     STEP_START_VAL  700
     TIME_START_VAL     3.4999999999999363E+02
     ECONS_START_VAL    -4.5589206925946146E+03
     TEMPERATURE     3.3000000000000006E+02
     &BAROSTAT
       PRESSURE     1.0129999999999999E+00
       &VELOCITY
            -2.3317125298141855E-06   -1.0750518591013736E-07   -2.6312349040766743E-07   -1.0750518591013736E-07 \
            -2.7506873530829473E-06   -4.1759855449699301E-07   -2.6312349040766743E-07   -4.1759855449699301E-07    2.3133264169709056E-06
       &END VELOCITY
       &MASS
             4.2330639099311793E+08    4.2330639099311793E+08    4.2330639099311793E+08    4.2330639099311793E+08 \
             4.2330639099311793E+08    4.2330639099311793E+08    4.2330639099311793E+08    4.2330639099311793E+08    4.2330639099311793E+08
       &END MASS
       &THERMOSTAT
         TYPE  CSVR
         &CSVR
           TIMECON     9.6755373060191385E-01
           &THERMOSTAT_ENERGY
                 1.0235772011509274E-01
           &END THERMOSTAT_ENERGY
           &RNG_INIT
Wiener process for Thermostat # 1        1 F T F   6.0454792098788690E-01        3208576974.0        1406889078.0        4219206605.0         304747010.0        3050946605.0        1494464783.0             12345.0             12345.0             12345.0             12345.0             12345.0             12345.0             12345.0             12345.0             12345.0             12345.0             12345.0             12345.0
           &END RNG_INIT
         &END CSVR
       &END THERMOSTAT
     &END BAROSTAT
     &THERMOSTAT
       TYPE  CSVR
       REGION  GLOBAL
       &CSVR
         TIMECON     9.9999999999999982E+00
         &THERMOSTAT_ENERGY
               7.9911812948299532E-01
         &END THERMOSTAT_ENERGY
         &RNG_INIT
Wiener process for Thermostat # 1        1 F T F   1.7175552546356783E+00        2968447702.0        4078132852.0         977820579.0        2395505959.0         971929258.0         577505701.0             12345.0             12345.0             12345.0             12345.0             12345.0             12345.0             12345.0             12345.0             12345.0             12345.0             12345.0             12345.0
         &END RNG_INIT
       &END CSVR
     &END THERMOSTAT
     &AVERAGES  T
       &RESTART_AVERAGES
         ITIMES_START  1
         AVECPU     1.2228238396028988E+02
         AVEHUGONIOT     0.0000000000000000E+00
         AVETEMP_BARO     5.8494531618117617E+02
         AVEPOT    -4.5600730180486198E+03
         AVEKIN     3.9510292892509047E-01
         AVETEMP     3.5243923239192765E+02
         AVEKIN_QM     0.0000000000000000E+00
         AVETEMP_QM     0.0000000000000000E+00
         AVEVOL     1.5665064049534758E+04
         AVECELL_A     1.3666569872707139E+01
         AVECELL_B     1.3564742734081689E+01
         AVECELL_C     8.5212880576329965E+01
         AVEALPHA     8.6241527724777995E+01
         AVEBETA     9.4562015226373816E+01
         AVEGAMMA     9.4921339543521469E+01
         AVE_ECONS    -2.6467517869080197E+00
         AVE_PRESS    -9.3695932857469652E+03
         AVE_PXX    -1.5103084999259532E+04
       &END RESTART_AVERAGES
     &END AVERAGES
   &END MD
   &PRINT
     &TRAJECTORY  ON
       FILENAME ./traj/pos
       FORMAT  DCD_ALIGNED_CELL
       &EACH
         MD  1
       &END EACH
     &END TRAJECTORY
     &VELOCITIES  ON
       FILENAME ./traj/vel
       FORMAT  DCD
       &EACH
         MD  1
       &END EACH
     &END VELOCITIES
     &FORCES  ON
       FILENAME ./traj/for
       FORMAT  DCD
       &EACH
         MD  1
       &END EACH
     &END FORCES
     &RESTART  ON
       FILENAME ./restart/base
       &EACH
         MD  5
       &END EACH
     &END RESTART
   &END PRINT
 &END MOTION
 &FORCE_EVAL
   METHOD  QS
   STRESS_TENSOR  ANALYTICAL
   &DFT
     BASIS_SET_FILE_NAME ../input/BASIS_ADMM
     BASIS_SET_FILE_NAME ../input/BASIS_MOLOPT
     POTENTIAL_FILE_NAME ../input/GTH_POTENTIALS
     UKS  T
     CHARGE  0
     &SCF
       MAX_SCF  40
       EPS_SCF     1.0000000000000001E-05
       SCF_GUESS  ATOMIC
       &OT  T
         MINIMIZER  DIIS
         PRECONDITIONER  FULL_SINGLE_INVERSE
       &END OT
       &OUTER_SCF  T
         EPS_SCF     1.0000000000000001E-05
         MAX_SCF  600
       &END OUTER_SCF
     &END SCF
     &AUXILIARY_DENSITY_MATRIX_METHOD
       ADMM_PURIFICATION_METHOD  MO_DIAG
       METHOD  BASIS_PROJECTION
     &END AUXILIARY_DENSITY_MATRIX_METHOD
     &QS
       EPS_DEFAULT     9.9999999999999998E-13
     &END QS
     &MGRID
       CUTOFF     4.0000000000000000E+02
     &END MGRID
     &XC
       DENSITY_CUTOFF     1.0000000000000000E-10
       GRADIENT_CUTOFF     1.0000000000000000E-10
       TAU_CUTOFF     1.0000000000000000E-10
       &XC_FUNCTIONAL  NO_SHORTCUT
         &PBE  T
           SCALE_X     0.0000000000000000E+00
           SCALE_C     1.0000000000000000E+00
         &END PBE
         &XWPBE  T
           SCALE_X    -1.2000000000000000E-01
           SCALE_X0     1.0000000000000000E+00
           OMEGA     1.1000000000000000E-01
         &END XWPBE
       &END XC_FUNCTIONAL
       &HF
         FRACTION     1.2000000000000000E-01
         &SCREENING
           EPS_SCHWARZ     1.0000000000000000E-04
           SCREEN_ON_INITIAL_P  F
         &END SCREENING
         &INTERACTION_POTENTIAL
           POTENTIAL_TYPE  SHORTRANGE
           OMEGA     1.1000000000000000E-01
         &END INTERACTION_POTENTIAL
         &MEMORY
           EPS_STORAGE_SCALING     1.0000000000000001E-01
           MAX_MEMORY  2400
         &END MEMORY
       &END HF
       &VDW_POTENTIAL
         POTENTIAL_TYPE  PAIR_POTENTIAL
         &PAIR_POTENTIAL
           TYPE  DFTD3
           PARAMETER_FILE_NAME ../input/dftd3.dat
           REFERENCE_FUNCTIONAL PBE0
         &END PAIR_POTENTIAL
       &END VDW_POTENTIAL
     &END XC
     &PRINT
     &END PRINT
   &END DFT
   &SUBSYS
     &CELL
       A     7.0529113200936582E+00   -2.2755514956333909E-02   -3.9722763267714983E-02
       B    -5.5670023619887254E-01    6.9583409815974377E+00   -5.3336855780895059E-02
       C    -3.4926190124151248E+00    2.6423553787300786E+00    4.5081241260681693E+01
       PERIODIC  XYZ
       MULTIPLE_UNIT_CELL  1 1 1
       &CELL_REF
         A     7.4100000000000001E+00    0.0000000000000000E+00    0.0000000000000000E+00
         B    -5.6075082412935573E-01    7.3887521621203573E+00    0.0000000000000000E+00
         C    -3.4053693773037792E+00    3.1567202268075030E+00    4.4759787497415424E+01
         MULTIPLE_UNIT_CELL  1 1 1
       &END CELL_REF
     &END CELL
     &COORD
FE1    4.0856772886907722E+00    5.7257396525369604E+00    1.9004706768161082E+01
FE1    9.4029315259667734E-01    2.1456951597018028E+00    1.9110165573785032E+01
FE1    4.1068080082351406E+00    2.3854304486212445E+00    2.3039971526881484E+01
FE2   -8.1505002091487536E-03    6.2280768095002106E+00    2.7042249685392278E+01
FE2   -8.2115135182070498E-01    6.8978264188572656E+00    1.6776103053395378E+01
FE2    2.4602098053508428E+00    7.1467070107196777E+00    2.0746302270522786E+01
FE2   -8.0906064260557675E-01    3.7203827657813222E+00    2.0741506845970623E+01
FE2    2.4344322679707755E+00    3.9268524077095757E+00    2.4738559421431553E+01
FE1    2.7361071396789773E+00    6.9381670100590416E+00    1.6556958628203027E+01
FE1   -5.1300794857495402E-01    3.4138673834104840E+00    1.6876465278222735E+01
FE1    2.7240398573456290E+00    3.7058314015343967E+00    2.0787193088734156E+01
FE1    2.8601200742322169E-01    5.9012950577477108E+00    2.2957675743563122E+01
FE1    3.4287529500934584E+00    6.2290220567720258E+00    2.6865907878199629E+01
FE1    2.9971673993527576E-01    2.8486030429768165E+00    2.6885964347246937E+01
FE2    4.3276558577912239E+00    2.1441610477237387E+00    1.9049075775399491E+01
FE2   -1.3205321067912767E+00    7.5058038076801248E+00    2.4761027442187466E+01
FE1   -1.0663014931913759E+00    7.1532941271600068E+00    2.0831785778449362E+01
FE1    2.1352370300911816E+00    7.4133679980786793E+00    2.4660358649472439E+01
FE1   -1.0383207919149238E+00    4.0002833494693553E+00    2.4726326839987909E+01
FE2    5.6667826877827510E-01    5.6235485378159833E+00    1.8994298381968004E+01
FE2    3.8167053908438811E+00    5.8706036939299118E+00    2.3006611120195977E+01
FE2    5.7006741751425838E-01    2.3968721779021718E+00    2.2887608027409559E+01
FE2    3.8704643685158748E+00    2.8020607097099974E+00    2.7006957085043393E+01
FE2    3.0120173500721625E+00    3.5590725136626022E+00    1.6893333548577356E+01
O   -1.9282422579703622E+00    5.8106172021584257E+00    2.7777077017030724E+01
O    9.7889933090688508E-01    7.2963241405451047E+00    1.5849234124134762E+01
O    4.2645634271557284E+00    7.5045009416822372E+00    1.9911376103378981E+01
O    1.0772141946835538E+00    4.0580310003204163E+00    1.9897131183554201E+01
O    4.3202678885251924E+00    4.2721366343680716E+00    2.3888514882367840E+01
O    2.7396998445359644E-01    7.2318403888246170E+00    2.9254877316439206E+01
O   -1.4696937060961128E+00    5.8175242637522926E+00    1.4832095544029233E+01
O    2.1967489525703341E+00    6.2983557977772673E+00    1.8599996077864507E+01
O   -9.5225739717996583E-01    2.9605206520089107E+00    1.8690775014019970E+01
O    2.2994462920808352E+00    3.1003674419227791E+00    2.2620826481775744E+01
O   -8.8594490724700836E-01    7.9792336093393565E+00    2.6514437714261128E+01
O   -4.1735584672181344E-02    5.2255431390336220E+00    1.7168652924282132E+01
O    3.2033414013466870E+00    5.4279540652586862E+00    2.1176034662947057E+01
O    1.1631799231089601E-01    1.9374709629356937E+00    2.1066777238025409E+01
O    3.2325652793826971E+00    2.2182932086212177E+00    2.5237836676818539E+01
O    2.5125026053986095E+00    5.1551608850323047E+00    1.5738038700563674E+01
O   -8.6118553557571964E-01    1.5205923999833602E+00    1.5744224323314061E+01
O    2.5403940733036903E+00    1.8642637210518964E+00    2.0024261444500617E+01
O    4.6428092856021913E-01    7.7698224413600787E+00    2.3868881604651015E+01
O    3.8776143888326344E+00    8.0397666873582772E+00    2.7728090333486705E+01
O    5.8611549160334364E-01    4.5845567948311681E+00    2.7913386556304562E+01
O    4.4449028615027109E+00    6.3637600325959589E+00    1.7175784241243299E+01
O    1.2642869164725092E+00    2.8529686246259129E+00    1.7249432755542049E+01
O    4.5809101495468676E+00    3.0458412817616405E+00    2.1143152769772382E+01
O   -1.5086651668173257E+00    6.6090333133462087E+00    2.2641403728265981E+01
O    1.7500966938764646E+00    6.7583962500366956E+00    2.6463896126302203E+01
O   -1.4618530599494193E+00    3.3686721036771550E+00    2.6579287837331147E+01
O    3.4915492016521616E+00    7.4644853984777546E+00    1.4382678841705040E+01
O    4.3239396496345611E-01    4.0911866635167407E+00    1.4601491662765763E+01
O    3.5885976797316141E+00    3.9561457282019581E+00    1.8683341264859319E+01
O   -6.0372699587571654E-01    5.6767194209982357E+00    2.5216115297737499E+01
O    2.8323599982522678E+00    5.8763660415459684E+00    3.0199864061671168E+01
O   -7.1127620518290402E-01    2.0483940499726616E+00    3.0278031044273757E+01
O   -1.2744589919112292E+00    5.3802143985689446E+00    1.9804321709675676E+01
O    1.9824384447728036E+00    5.5568687626529565E+00    2.3838078746773959E+01
O   -1.2195785654442810E+00    2.1175578375280093E+00    2.3830122049556138E+01
O    1.9716019813171988E+00    2.2750739125098929E+00    2.7765833405111874E+01
O    4.6758506406936053E+00    3.6321094622456727E+00    1.5801671670157551E+01
O    7.8653132677554904E-01    6.4500635228085734E+00    2.1173904110263244E+01
O    3.8885934765872423E+00    6.8005911124695810E+00    2.5013566010111195E+01
O    7.0843645194512350E-01    3.3156261048611690E+00    2.5018705714518390E+01
O    4.4402056196309969E+00    3.7753809790464770E+00    2.9104226562667858E+01
O    3.2937865963560466E+00    3.1545034424210652E+00    1.2591451940248412E+01
O   -2.0010948440748116E-01    7.4473833332523034E+00    1.8585957914057825E+01
O    2.9877622594030986E+00    7.6434857750896894E+00    2.2612685288016593E+01
O   -2.6149445191167558E-01    4.1632449924669217E+00    2.2576244877379594E+01
O    3.0220391835608678E+00    4.4634088201217326E+00    2.6510277930707215E+01
O    3.7017357513571603E+00    1.7765451822462031E+00    1.7278909232896812E+01
H    3.1388412297618622E-02    2.5066977852254451E+00    3.0711122956817299E+01
H   -4.6381548111600268E-01    7.8639959435662723E+00    2.9528763002392139E+01
H    3.3055105406598977E+00    6.6110627234762243E+00    2.9772536574103373E+01
H    4.9749378334887107E+00    4.3576682724108275E+00    2.8537962702805881E+01
H    1.5305231956656604E+00    4.6686909934428487E+00    2.7976738810137523E+01
H    4.8408218399755301E+00    8.0217757716682261E+00    2.7286335828082201E+01
H    1.2090706189668872E+00    8.2913771939960235E+00    1.5789177973777983E+01
H    4.7013065434305590E+00    2.9755596476595296E+00    1.5123073286459503E+01
H   -2.0551308272726940E+00    5.8758595978393924E+00    1.4031839818855502E+01
H    1.3133539605890205E+00    4.6126910177118532E+00    1.5095718371770564E+01
H    3.7336865773449541E+00    3.9917638195383875E+00    1.2708713280459817E+01
H    4.2817719458491750E+00    7.8498723995541475E+00    1.4796600060811553E+01
H    5.2119985875096955E+00    3.3062805656719729E+00    2.9437247115503283E+01
H    1.8753532783808742E+00    1.5533020929185499E+00    2.8467083134356812E+01
H   -1.7032371730570564E+00    6.4059523354546073E+00    2.8551693951947463E+01
H    4.2684074550865314E-01    6.5768193700374313E+00    2.9955907951424113E+01
H    3.3945122604836153E+00    5.0855416451011362E+00    2.9924999650231388E+01
H   -1.4886431462300846E+00    2.0252314100491806E+00    3.0910844844384755E+01
H   -3.3785881275278690E-01    1.6583585044926519E+00    1.4930097055763904E+01
H    3.2987298090964079E+00    5.2054326783335867E+00    1.5148297673638522E+01
H    2.3315211194361525E+00    3.3232559959340882E+00    1.2376622739942889E+01
H   -1.7270405069469721E+00    4.9117908183225518E+00    1.5150495822836440E+01
H   -1.0086357357635993E-01    4.8950728864075410E+00    1.4459896759390540E+01
H    3.2572187868453146E+00    8.2345449426828878E+00    1.3837293466732930E+01
OW    1.2914762455797458E+01    5.1229328844998037E+00    1.0401616653256562E+00
HW    1.2680296248492827E+01    4.6375848550125101E+00    2.3731079553043649E-01
HW    1.3891257125380156E+01    5.0812479059958005E+00    1.2089845941845270E+00
OW    8.0612638116468383E-01    2.6412400863310621E+00    1.2412905399674143E+01
HW    6.3069316370831907E-01    3.1487706462657203E+00    1.3264802400213110E+01
HW   -7.2897501990818292E-02    2.7881678892288297E+00    1.1882728462553075E+01
OW    4.5970056443944101E+00    6.8979193012357998E+00    7.1087187705586716E+00
HW    5.3293056742790013E+00    6.4378180413284882E+00    6.7155642898033330E+00
HW    3.9206354874499980E+00    6.7021523745015719E+00    6.4638061003249812E+00
OW    8.5599715697053806E+00    5.2596977307805624E+00    1.9354411232030846E+00
HW    9.1503606069037531E+00    6.0698479773024800E+00    1.8969827239966486E+00
HW    8.4095170377165100E+00    5.1145191849477580E+00    2.8700743482313000E+00
OW    1.0205389765417308E+00   -6.0245963691611733E-02    1.3024928485678755E+01
HW    7.9375410791012013E-01    9.3015339435189726E-01    1.2869584119341310E+01
HW    1.1409941746884822E+00   -7.4427937230700125E-02    1.4006775464753639E+01
OW    1.2141567661153481E+00   -1.6483668279891635E+00    8.4227498734795532E+00
HW    1.6035800428477074E+00   -2.0120791104514257E+00    9.2944106705122547E+00
HW    1.7266595205402031E+00   -1.8851811905389591E+00    7.6938160655624745E+00
OW    3.3775023841558185E+00    2.9019989209352071E+00    7.2299861714149527E+00
HW    4.2066733936029523E+00    2.9584417319381520E+00    7.7402545907778153E+00
HW    2.8085164668091958E+00    2.3365949164883211E+00    7.7348704511279029E+00
OW    8.6282552409013320E+00    9.2970392533442947E+00    3.3050532976222677E+00
HW    8.2702734155620714E+00    8.9772436289322126E+00    4.1576616699196274E+00
HW    9.1744029453185298E+00    1.0050482977697438E+01    3.6365805490104903E+00
OW    3.0412100454878002E+00    4.3793595799415517E+00    4.9337486105711328E+00
HW    3.7795668013856045E+00    4.9603825808008324E+00    4.6595584530129264E+00
HW    3.3138685804977985E+00    3.8008067844408777E+00    5.7660166344951627E+00
OW    5.6765038131004797E+00    3.3253912996567534E+00    1.1161161500847705E+01
HW    4.9091679593494160E+00    2.8451390897997597E+00    1.1466558161161785E+01
HW    5.7682350713963677E+00    3.3841021869844421E+00    1.0165940939348149E+01
OW    1.9372748531091759E+00    9.1368109701963505E+00    9.8431829784742515E+00
HW    1.3963093363391088E+00    9.2946156080665219E+00    1.0667178941056509E+01
HW    2.5257586816943989E+00    8.3407944331764998E+00    1.0068573632229301E+01
OW    3.6838828668613539E+00    7.0220938014906764E+00    9.7255596216035656E+00
HW    4.4110955660679103E+00    6.7234568375174479E+00    1.0292842206970588E+01
HW    4.0144963746733211E+00    7.1096187832133468E+00    8.7922584452501784E+00
OW    6.8102544572794868E+00   -1.7712184317079900E+00    5.7504744816879017E+00
HW    6.4014918503694958E+00   -1.3707966574012593E+00    4.9139770550526087E+00
HW    6.6694276481639481E+00   -2.7745761118497789E+00    5.6775754378941201E+00
OW    5.2365385354980711E+00    5.9228366148300484E+00    1.1892060919116393E+01
HW    5.3537048485588334E+00    5.0004633284066715E+00    1.1584797249272006E+01
HW    6.0905111948022137E+00    6.1412972653785793E+00    1.2310741535079142E+01
OW    7.6104020630144253E-01    1.1286625823409679E+00    8.2724552849818416E+00
HW    6.6334496071596083E-01    1.8641412780762931E-01    8.3809421021350587E+00
HW    1.3044121262654427E+00    1.4486324726310864E+00    8.9900806568489209E+00
OW    5.8171801317260519E+00    3.1272688618221238E+00    8.5842640174172189E+00
HW    6.3639727516059024E+00    2.3065218756175256E+00    8.2842284520406597E+00
HW    6.2251426911836081E+00    3.8831570158350890E+00    8.2024565570868262E+00
OW    9.3038030015811657E+00    6.8458472762269631E+00    5.2022478423604133E+00
HW    8.4519707173741043E+00    7.2727221078336486E+00    5.3654691467277100E+00
HW    9.2300108348267997E+00    5.8804977716311120E+00    5.2955618793115384E+00
OW    1.9607896711862185E+00    5.1455240982279928E+00    1.0651918424700710E+01
HW    1.6368685580056326E+00    5.7053111007212083E+00    1.1303678847117148E+01
HW    2.6408251535990184E+00    5.6102087777780589E+00    1.0114486145743630E+01
OW    2.9126225815596882E+00    3.8556184656455064E+00    3.3939937922529332E+01
HW    3.3647001141607635E+00    3.7569606990551221E+00    3.3093771774265214E+01
HW    3.1287614268081354E+00    2.9723858503981360E+00    3.4321583321045104E+01
OW   -1.3702897395074061E+01    1.1802772804751964E+01    3.5648297908069871E+01
HW   -1.4375381094535040E+01    1.1381522682876996E+01    3.5082945237226937E+01
HW   -1.2866492836569522E+01    1.1721593203949793E+01    3.5165496726427548E+01
OW    6.0170530746243978E-01    1.2651659670112538E+00    3.4125709082027250E+01
HW    8.1515768110984890E-02    2.0441902560808605E+00    3.3837301832310018E+01
HW    4.1488075110131561E-01    1.2851624330536755E+00    3.5083482947969742E+01
OW    1.9193361887089605E+01    8.8006052570532010E+00    4.1173086630224446E+01
HW    1.8272800087906571E+01    9.0241593101789448E+00    4.1541096851439008E+01
HW    1.9346279881437180E+01    8.0591204024295529E+00    4.0560731112238521E+01
OW    9.3265706255210012E-01    6.5810924904890991E+00    3.2263382347267488E+01
HW    1.9055708313188893E+00    6.7801095370344280E+00    3.2153125451653764E+01
HW    5.7088254118744364E-01    7.2712569861193606E+00    3.2893551980488425E+01
OW    1.6767921287064029E+00    3.1553957796738277E+00    3.0487829099531059E+01
HW    1.9203793683429420E+00    2.9667991742432442E+00    2.9535170371083510E+01
HW    1.5504814176024013E+00    4.1143505220327077E+00    3.0457451167553121E+01
OW    3.0762799613679475E+00    8.1949454544865024E+00    3.4118900093858784E+01
HW    2.2259354210114033E+00    7.7975282754957984E+00    3.4406825645094926E+01
HW    3.5930565225870810E+00    8.0933467571307585E+00    3.4953024729671611E+01
OW    5.6050378933897180E+00   -1.0609707913174966E+00    3.2346347214352718E+01
HW    4.8521652567018485E+00   -1.0258971551777269E+00    3.1758476282251959E+01
HW    6.3119002352271609E+00   -4.5895408591714859E-01    3.2096946484136325E+01
OW    1.7524221648623794E+01    2.9665740813796857E+00    4.2217375859199812E+01
HW    1.7671531644082751E+01    3.9514330551956061E+00    4.2537574969395429E+01
HW    1.6566651597875097E+01    2.8616533810717812E+00    4.2393297080857110E+01
OW   -9.1265781079304342E-01    1.0822159338917462E+01    3.3346032008751600E+01
HW    2.3440983210598197E-02    1.1047942137990395E+01    3.3162380530658858E+01
HW   -1.4294373940536731E+00    1.1537507663315536E+01    3.2902769358425999E+01
OW    4.2251583559778467E+00    2.2834782617512430E+00    3.1777577857611774E+01
HW    4.1012567208016133E+00    1.5636568282458556E+00    3.2410308914362282E+01
HW    3.3217461386035620E+00    2.4383237759754173E+00    3.1380798129083555E+01
OW    2.6479040067019208E-02    1.3846183676200345E+00    3.6800332415789534E+01
HW    2.5182748203755717E-01    2.2746462639136986E+00    3.7176129828320583E+01
HW    7.3484163132793134E-01    7.1539992720340573E-01    3.7157809474708245E+01
OW    1.4237298567733005E+01    1.0763756366587854E+01    4.3275742546496346E+01
HW    1.4082457583516806E+01    1.0804835227054980E+01    4.2315850662542573E+01
HW    1.4133513283702348E+01    9.8681358974550655E+00    4.3597729399495414E+01
OW    7.8342929764845142E+00    3.5882642404399427E+00    3.8198468219779230E+01
HW    8.7316153770431786E+00    3.2875902160037871E+00    3.7925685964378076E+01
HW    7.7790621004682539E+00    4.4984658926276646E+00    3.7809277484508705E+01
OW    3.5151341548294330E+00    5.7072976016393318E+00    3.8346712408856348E+01
HW    4.0470825053031803E+00    5.8260261165009908E+00    3.9189209372469385E+01
HW    3.2861864272296000E+00    4.7383373132984969E+00    3.8285315127762452E+01
OW    1.3651631239666539E+01    7.9745921571016503E+00    4.3307011705909076E+01
HW    1.2991150709651707E+01    8.1724212533201861E+00    4.2591642828715131E+01
HW    1.3294437251360224E+01    7.3178531264063125E+00    4.3839436363989421E+01
OW    4.0529860893102461E+00    7.7288407232630227E+00    3.6713995669120351E+01
HW    4.0430949117666302E+00    6.8789503105387571E+00    3.7143564702017258E+01
HW    5.0173032479738309E+00    7.9892290396120647E+00    3.6821196884165225E+01
OW    1.4978522777970467E+01    8.0641151931970594E+00    4.0121993560500165E+01
HW    1.4454719644296411E+01    7.5933428037390298E+00    3.9514968295929734E+01
HW    1.5065203808890567E+01    7.6990911771088308E+00    4.0985560030950353E+01
OW    1.2556849127077795E+01    5.9572810094279092E+00    4.5091933266490315E+01
HW    1.2381542052944694E+01    6.4846737881465737E+00    4.5909850941768823E+01
HW    1.2347989457583573E+01    5.0345026220361397E+00    4.5342142953966523E+01
OW    1.2442747982976309E+01    2.3084535633918977E+00    4.8004960261796299E+00
HW    1.1845410827902564E+01    1.8234731366494701E+00    5.4297951041130244E+00
HW    1.2423461292847270E+01    1.5862774453884532E+00    4.1090149746440883E+00
OW    1.2190712132139467E+01    3.7591100604147338E+00   -1.3240761448707221E+00
HW    1.1841413696684956E+01    2.8084319417040158E+00   -1.3254158838748678E+00
HW    1.1486717048808266E+01    4.3905983200327441E+00   -1.5462112472106695E+00
OW    1.4224873542871421E+01    3.1197142108080818E+00    4.7032670807326298E+01
HW    1.3601547470147230E+01    3.8256237743070622E+00    4.7407978430618208E+01
HW    1.4755286888643845E+01    3.6859153986582616E+00    4.6411845945269910E+01
OW    1.1869817011180890E+01    6.0791585464719455E+00    3.4062482772268128E+00
HW    1.2284044178714606E+01    5.6814965443127514E+00    2.6349329841677833E+00
HW    1.1075418289091052E+01    6.4747746251380898E+00    3.0224875974656049E+00
OW    2.5314717989809479E+00    9.5690214631296016E+00    3.8008499465099078E+01
HW    2.2665984224217057E+00    9.2445594044608352E+00    3.8875356263650758E+01
HW    3.2047569219195511E+00    8.9113652170831497E+00    3.7596256264455697E+01
OW    1.9086028384868921E+01    6.1214274175620824E+00    4.0369737917552662E+01
HW    1.9826576294381010E+01    5.4006879645531329E+00    4.0318244273431716E+01
HW    1.8829284277873441E+01    5.9247923216263967E+00    4.1287425756288982E+01
OW    8.0865141462765617E+00    6.4532957776901485E+00    3.7547005675528496E+01
HW    8.1229913270711478E+00    6.0456931597799821E+00    3.6634274676747957E+01
HW    9.0277878231498079E+00    6.5118039050412664E+00    3.7885728472929408E+01
OW    1.1521114842505298E+01    4.3496962887417228E+00    5.0827308600377265E+01
HW    1.1393029121124417E+01    4.2474466121935768E+00    5.1798038828035160E+01
HW    1.0598611549662177E+01    4.5769698138122337E+00    5.0478498786250057E+01
OW    1.8682970879620001E+01   -1.3781348253558268E+00    4.2907466593807769E+01
HW    1.9253137467246979E+01   -1.2509187857910020E+00    4.3738573429075821E+01
HW    1.7878477604378354E+01   -8.3985867488151145E-01    4.3048174032473575E+01
OW    1.3884891840727155E+01    4.1349294250459874E+00    4.0809089064353934E+01
HW    1.3247102181301557E+01    3.3737423348853048E+00    4.0878712632458168E+01
HW    1.4258603852646813E+01    4.0827129740303629E+00    3.9892042149678495E+01
     &END COORD
     &VELOCITY
          -7.1589800526661014E-05   -2.7376208652057075E-05    5.7882145841987561E-05
           4.8009774606640394E-05    9.1913957500615212E-05   -5.2819405118223138E-05
           1.1165225196041903E-04    2.0164479103221460E-05   -9.6369006409501421E-06
          -5.5467016386094565E-05    8.5794498276407696E-05   -5.0666533817093968E-05
           8.0587896465521099E-05   -2.3691223654845197E-05    4.6179660505903131E-05
           1.9845833180228166E-05   -4.9636505103571216E-05   -2.0027465742413318E-05
          -2.8177015993092743E-06   -1.5263101979060670E-05   -7.9774376180213470E-05
          -1.6041771577582456E-05   -5.8698960579969353E-05   -2.3844648218900954E-05
           7.3161743268932092E-05    9.7779223716558286E-05    8.1775767916515609E-05
          -9.2224889060848043E-05   -8.1087582271715982E-06    3.2780559268676510E-05
          -8.3349608552091224E-05    2.7933344337972888E-05   -7.4156932872035736E-05
           5.9082069609295122E-05    3.5691367209513029E-05    2.7485813737818944E-05
           6.4000098554067550E-06   -7.0259720993944224E-06    2.7944829348841998E-05
          -7.5111119585880159E-05   -1.0109960019280866E-04    9.9335438988545923E-06
           2.8873472618743027E-05    4.4465938140029801E-05    1.0828365189932256E-04
          -2.2532765129335934E-05   -1.4805153210537355E-04   -3.7155823025986128E-05
          -3.5354901726499304E-05    3.3838087900029788E-05    7.3882337685310766E-05
           4.4918035218604711E-05    9.0975638670859419E-05    4.5911138627826274E-05
          -2.5449853822306172E-05   -7.7209518655155295E-05    8.5021446256237920E-05
           9.3009072677082224E-05    1.0937166005653323E-05   -4.5561034559914853E-05
           8.5908693235561720E-05   -4.8514808753360550E-05    5.5588698253438614E-05
          -6.3388250708783497E-05   -2.7164666871513559E-05   -1.0513021682997888E-05
          -2.8902359314627590E-05    1.7262654848499074E-05    1.5861207619843862E-04
          -5.0801846966640401E-05   -1.5291270758801019E-04    2.5494293479886649E-04
           2.3760348613038724E-04   -1.0729448128338303E-04    3.3556583230349204E-04
           1.6048380042430309E-04    1.2453374103634095E-04   -1.7362026018362574E-04
          -1.3656713158080935E-04   -8.1271811024540056E-06   -1.9036534956556449E-04
           1.0233166829629983E-04   -8.7859697129633900E-05    2.2990203421519205E-04
          -1.8639532475113926E-04   -7.4884859503748674E-05   -3.2274267354865180E-04
           1.8474713471449788E-04    7.6761290422165340E-06   -1.4897644732447148E-04
           1.3342025455901984E-04    3.8813412987030249E-04   -5.7226334226592065E-05
           7.7765513782484749E-05    2.9388650871714305E-04    2.7728341562078526E-04
          -3.3305330778737646E-05    7.5779898950587791E-05   -4.2598029891483793E-05
          -9.0084930680319568E-05   -1.3652197562023967E-04   -5.1894308302617927E-05
          -2.3408318658907026E-04    7.8917154215445783E-05    5.3389528620282503E-05
          -2.2696539748568397E-04   -3.2067846629512249E-04    3.9682845464137913E-05
          -5.6225216565828887E-05   -1.0345958484745849E-04   -2.2035702235613991E-04
          -2.6066411115198678E-04   -8.5555543050959008E-05    7.7312560334751615E-05
           2.2866883023528513E-04    2.1382142977555718E-04    2.8522263798126332E-04
          -5.1217872473157808E-05   -6.5982610030905679E-05    7.4087247721701913E-05