 # Version information for this restart file 
 # current date 2016-07-12 17:48:50.050
 # current working dir /fs3/e05/e05/gfvr/rcut-fixed-A-3189f38c0b82e789c60773310b94a123/run-1
 # Program compiled at                              Tue Feb  2 22:08:17 GMT 2016
 # Program compiled on                                                eslogin008
 # Program compiled for                                                   ARCHER
 # Source code revision number                                         svn:16458
 &GLOBAL
   PROJECT_NAME hematite
   OUTPUT_FILE_NAME ./out/base
   RUN_TYPE  MD
 &END GLOBAL
 &MOTION
   &MD
     ENSEMBLE  NPT_F
     STEPS  10000
     TIMESTEP     4.9999999999999994E-01
     STEP_START_VAL  690
     TIME_START_VAL     3.4499999999999386E+02
     ECONS_START_VAL    -4.5589206925946146E+03
     TEMPERATURE     3.3000000000000006E+02
     &BAROSTAT
       PRESSURE     1.0129999999999999E+00
       &VELOCITY
            -2.2422848384904414E-06    2.4562355611210643E-08   -3.4427049041029765E-07    2.4562355611210643E-08 \
            -2.6237899931819382E-06   -3.2346440200018306E-07   -3.4427049041029765E-07   -3.2346440200018306E-07    1.8238909365359003E-06
       &END VELOCITY
       &MASS
             4.2330639099311793E+08    4.2330639099311793E+08    4.2330639099311793E+08    4.2330639099311793E+08 \
             4.2330639099311793E+08    4.2330639099311793E+08    4.2330639099311793E+08    4.2330639099311793E+08    4.2330639099311793E+08
       &END MASS
       &THERMOSTAT
         TYPE  CSVR
         &CSVR
           TIMECON     9.6755373060191385E-01
           &THERMOSTAT_ENERGY
                 1.0324393202112322E-01
           &END THERMOSTAT_ENERGY
           &RNG_INIT
Wiener process for Thermostat # 1        1 F T F  -1.9174912322713114E+00        2304162290.0        3021915233.0        3859676960.0         588605056.0        1656972587.0         896466566.0             12345.0             12345.0             12345.0             12345.0             12345.0             12345.0             12345.0             12345.0             12345.0             12345.0             12345.0             12345.0
           &END RNG_INIT
         &END CSVR
       &END THERMOSTAT
     &END BAROSTAT
     &THERMOSTAT
       TYPE  CSVR
       REGION  GLOBAL
       &CSVR
         TIMECON     9.9999999999999982E+00
         &THERMOSTAT_ENERGY
               7.7700402284281478E-01
         &END THERMOSTAT_ENERGY
         &RNG_INIT
Wiener process for Thermostat # 1        1 F T F  -9.8410318723643497E-01        1773738406.0         375453354.0        3416449334.0        3500659614.0        3642408830.0        2569058193.0             12345.0             12345.0             12345.0             12345.0             12345.0             12345.0             12345.0             12345.0             12345.0             12345.0             12345.0             12345.0
         &END RNG_INIT
       &END CSVR
     &END THERMOSTAT
     &AVERAGES  T
       &RESTART_AVERAGES
         ITIMES_START  1
         AVECPU     1.2226223480690449E+02
         AVEHUGONIOT     0.0000000000000000E+00
         AVETEMP_BARO     5.8964561144968229E+02
         AVEPOT    -4.5600711832109682E+03
         AVEKIN     3.9516814459165722E-01
         AVETEMP     3.5249740599121526E+02
         AVEKIN_QM     0.0000000000000000E+00
         AVETEMP_QM     0.0000000000000000E+00
         AVEVOL     1.5675705521977254E+04
         AVECELL_A     1.3671431341399673E+01
         AVECELL_B     1.3570101891149779E+01
         AVECELL_C     8.5207618133894897E+01
         AVEALPHA     8.6234241263366684E+01
         AVEBETA     9.4559229215183876E+01
         AVEGAMMA     9.4923743323767255E+01
         AVE_ECONS    -2.6523759889878797E+00
         AVE_PRESS    -9.6261362757308234E+03
         AVE_PXX    -1.5430745249482425E+04
       &END RESTART_AVERAGES
     &END AVERAGES
   &END MD
   &PRINT
     &TRAJECTORY  ON
       FILENAME ./traj/pos
       FORMAT  DCD_ALIGNED_CELL
       &EACH
         MD  1
       &END EACH
     &END TRAJECTORY
     &VELOCITIES  ON
       FILENAME ./traj/vel
       FORMAT  DCD
       &EACH
         MD  1
       &END EACH
     &END VELOCITIES
     &FORCES  ON
       FILENAME ./traj/for
       FORMAT  DCD
       &EACH
         MD  1
       &END EACH
     &END FORCES
     &RESTART  ON
       FILENAME ./restart/base
       &EACH
         MD  5
       &END EACH
     &END RESTART
   &END PRINT
 &END MOTION
 &FORCE_EVAL
   METHOD  QS
   STRESS_TENSOR  ANALYTICAL
   &DFT
     BASIS_SET_FILE_NAME ../input/BASIS_ADMM
     BASIS_SET_FILE_NAME ../input/BASIS_MOLOPT
     POTENTIAL_FILE_NAME ../input/GTH_POTENTIALS
     UKS  T
     CHARGE  0
     &SCF
       MAX_SCF  40
       EPS_SCF     1.0000000000000001E-05
       SCF_GUESS  ATOMIC
       &OT  T
         MINIMIZER  DIIS
         PRECONDITIONER  FULL_SINGLE_INVERSE
       &END OT
       &OUTER_SCF  T
         EPS_SCF     1.0000000000000001E-05
         MAX_SCF  600
       &END OUTER_SCF
     &END SCF
     &AUXILIARY_DENSITY_MATRIX_METHOD
       ADMM_PURIFICATION_METHOD  MO_DIAG
       METHOD  BASIS_PROJECTION
     &END AUXILIARY_DENSITY_MATRIX_METHOD
     &QS
       EPS_DEFAULT     9.9999999999999998E-13
     &END QS
     &MGRID
       CUTOFF     4.0000000000000000E+02
     &END MGRID
     &XC
       DENSITY_CUTOFF     1.0000000000000000E-10
       GRADIENT_CUTOFF     1.0000000000000000E-10
       TAU_CUTOFF     1.0000000000000000E-10
       &XC_FUNCTIONAL  NO_SHORTCUT
         &PBE  T
           SCALE_X     0.0000000000000000E+00
           SCALE_C     1.0000000000000000E+00
         &END PBE
         &XWPBE  T
           SCALE_X    -1.2000000000000000E-01
           SCALE_X0     1.0000000000000000E+00
           OMEGA     1.1000000000000000E-01
         &END XWPBE
       &END XC_FUNCTIONAL
       &HF
         FRACTION     1.2000000000000000E-01
         &SCREENING
           EPS_SCHWARZ     1.0000000000000000E-04
           SCREEN_ON_INITIAL_P  F
         &END SCREENING
         &INTERACTION_POTENTIAL
           POTENTIAL_TYPE  SHORTRANGE
           OMEGA     1.1000000000000000E-01
         &END INTERACTION_POTENTIAL
         &MEMORY
           EPS_STORAGE_SCALING     1.0000000000000001E-01
           MAX_MEMORY  2400
         &END MEMORY
       &END HF
       &VDW_POTENTIAL
         POTENTIAL_TYPE  PAIR_POTENTIAL
         &PAIR_POTENTIAL
           TYPE  DFTD3
           PARAMETER_FILE_NAME ../input/dftd3.dat
           REFERENCE_FUNCTIONAL PBE0
         &END PAIR_POTENTIAL
       &END VDW_POTENTIAL
     &END XC
     &PRINT
     &END PRINT
   &END DFT
   &SUBSYS
     &CELL
       A     7.0562439468642797E+00   -2.2700716930826027E-02   -3.9289935918702334E-02
       B    -5.5689716078597318E-01    6.9621765741243236E+00   -5.2811233301117040E-02
       C    -3.4915741901359301E+00    2.6472533724546548E+00    4.5062139913996226E+01
       PERIODIC  XYZ
       MULTIPLE_UNIT_CELL  1 1 1
       &CELL_REF
         A     7.4100000000000001E+00    0.0000000000000000E+00    0.0000000000000000E+00
         B    -5.6075082412935573E-01    7.3887521621203573E+00    0.0000000000000000E+00
         C    -3.4053693773037792E+00    3.1567202268075030E+00    4.4759787497415424E+01
         MULTIPLE_UNIT_CELL  1 1 1
       &END CELL_REF
     &END CELL
     &COORD
FE1    4.0959533988774082E+00    5.7348447024728433E+00    1.8990959007585072E+01
FE1    9.3511457716461321E-01    2.1401131297458402E+00    1.9106943642702763E+01
FE1    4.0984391307382024E+00    2.3888206890299322E+00    2.3031642263330063E+01
FE2    4.3632873612878942E-04    6.2253978933495944E+00    2.7034540681042284E+01
FE2   -8.3276822274026419E-01    6.9060432983585560E+00    1.6765230444726786E+01
FE2    2.4602201915951305E+00    7.1585899644289599E+00    2.0741150488295933E+01
FE2   -8.0681921207202245E-01    3.7259322994307227E+00    2.0740262868928159E+01
FE2    2.4397692405874776E+00    3.9372954959386837E+00    2.4730764145898867E+01
FE1    2.7307926672163640E+00    6.9339588722328855E+00    1.6545391802971253E+01
FE1   -5.0128584222484396E-01    3.4183958201615301E+00    1.6866972773703310E+01
FE1    2.7356725702647484E+00    3.7057921819151520E+00    2.0787231331211835E+01
FE1    2.8292051894672154E-01    5.9027322164372249E+00    2.2946529775136273E+01
FE1    3.4318239905032892E+00    6.2332080392975273E+00    2.6853162767597642E+01
FE1    3.1130261935441300E-01    2.8617620681242699E+00    2.6875131885045025E+01
FE2    4.3290440039450102E+00    2.1425119512718522E+00    1.9029601552351991E+01
FE2   -1.3183769455299090E+00    7.5265847853045331E+00    2.4754277782869114E+01
FE1   -1.0625031125310991E+00    7.1543559153286695E+00    2.0814765130670455E+01
FE1    2.1312607641099408E+00    7.4111989221301879E+00    2.4644750961757065E+01
FE1   -1.0370584311383362E+00    4.0119594903548474E+00    2.4705163819723634E+01
FE2    5.5852923138636845E-01    5.6257057297250652E+00    1.8992414521163976E+01
FE2    3.8107655246920533E+00    5.8814851165458970E+00    2.2992354588880666E+01
FE2    5.7956592931709794E-01    2.4032733780307995E+00    2.2881509967759229E+01
FE2    3.8757908667399561E+00    2.8021706371465425E+00    2.6979608197677649E+01
FE2    3.0193309448613497E+00    3.5768704340802184E+00    1.6860627401925722E+01
O   -1.9406290870959015E+00    5.8284077746716134E+00    2.7736062241307209E+01
O    9.7407622529336302E-01    7.2984461818977273E+00    1.5853213732929934E+01
O    4.2856915895661922E+00    7.5102712369252407E+00    1.9925883669690883E+01
O    1.0673451706133057E+00    4.0675519717052184E+00    1.9865795538280835E+01
O    4.3415130398536892E+00    4.2829315504383771E+00    2.3910854991391023E+01
O    2.5507279862589594E-01    7.2307224692442142E+00    2.9254268325619670E+01
O   -1.4915331656989574E+00    5.7703219637453040E+00    1.4811770556463742E+01
O    2.2016713949307043E+00    6.2735955438639790E+00    1.8557315222524206E+01
O   -9.5267603950210544E-01    2.9479720454704306E+00    1.8685752562543399E+01
O    2.3110065996235600E+00    3.1184596004533875E+00    2.2617260813055697E+01
O   -8.5188574061339306E-01    7.9776588446248136E+00    2.6504036575565650E+01
O   -1.6650399877407657E-02    5.2553586326019577E+00    1.7159039323115653E+01
O    3.2180779132536785E+00    5.4440575903182093E+00    2.1192093066995238E+01
O    1.4277914225267968E-01    1.9509449358161985E+00    2.1051466471195443E+01
O    3.2107485071862243E+00    2.1973530982779352E+00    2.5189625939926835E+01
O    2.5198979044544472E+00    5.1600001039681365E+00    1.5720785932719396E+01
O   -8.5381288231609975E-01    1.5069000097640175E+00    1.5737120038753320E+01
O    2.5402497569752813E+00    1.8623324294833015E+00    2.0020544993993994E+01
O    4.5817090851806513E-01    7.7424971806391953E+00    2.3856268594380413E+01
O    3.8464872191674790E+00    8.0535139845833523E+00    2.7648649890562787E+01
O    5.7449048884188580E-01    4.5844860107095764E+00    2.7912064096777222E+01
O    4.4289878706818104E+00    6.3255153921441369E+00    1.7190942361472729E+01
O    1.2943833106607372E+00    2.8622780592448360E+00    1.7225883372120705E+01
O    4.5610086073610878E+00    3.0369481828761704E+00    2.1137370818434036E+01
O   -1.5051951751631751E+00    6.6149811338910727E+00    2.2633376034997116E+01
O    1.7327246878589906E+00    6.7768108688596937E+00    2.6472227317834594E+01
O   -1.4442980751292107E+00    3.3849329168161413E+00    2.6537561562949413E+01
O    3.4846125713418870E+00    7.4755603851596097E+00    1.4411084534018975E+01
O    4.4974419895548878E-01    4.0766110358893481E+00    1.4624310714370178E+01
O    3.5880877854627919E+00    3.9397080576323638E+00    1.8700533746126791E+01
O   -6.0311115161712803E-01    5.6987463776690559E+00    2.5228571370561326E+01
O    2.8154409522421071E+00    5.8944589466161297E+00    3.0185379491655727E+01
O   -6.7208863850175216E-01    2.0372977867875304E+00    3.0248433177413879E+01
O   -1.2829649970498083E+00    5.3794530653519645E+00    1.9801911112978448E+01
O    1.9971936115285309E+00    5.5654269101370488E+00    2.3809053804467538E+01
O   -1.2271347030587147E+00    2.1152812661730120E+00    2.3833165871989657E+01
O    1.9892088081484509E+00    2.2626353526469725E+00    2.7726547098012475E+01
O    4.6725428496782797E+00    3.6456865187819325E+00    1.5805703267163421E+01
O    7.7776917332333972E-01    6.4456216923509428E+00    2.1167321136849989E+01
O    3.8900012528397121E+00    6.7767224733870526E+00    2.5007660163539203E+01
O    6.9855113133234681E-01    3.3299218982211043E+00    2.4996389739360335E+01
O    4.4584778127674136E+00    3.8112078821135573E+00    2.9129011763110679E+01
O    3.2909916495524469E+00    3.1280599131286704E+00    1.2593444980389453E+01
O   -1.5968136194520285E-01    7.4653238257243126E+00    1.8573094209092826E+01
O    2.9937872565608439E+00    7.6408389488014405E+00    2.2586124532700921E+01
O   -2.5721697742125954E-01    4.1625971736577210E+00    2.2563924967396783E+01
O    3.0554050995535702E+00    4.4659702206240182E+00    2.6528448950270146E+01
O    3.7351680016316831E+00    1.7669329228938009E+00    1.7314426292962001E+01
H    9.3991578282818872E-02    2.5074789021649426E+00    3.0686237514443835E+01
H   -4.4440857845384935E-01    7.8076509381427215E+00    2.9683346001885493E+01
H    3.3688303687288328E+00    6.5202291654120632E+00    2.9684500600659955E+01
H    5.0023906765578623E+00    4.3993177549486795E+00    2.8460961725148412E+01
H    1.5736475954595761E+00    4.5898806051170258E+00    2.7912135194763302E+01
H    4.8059520779649132E+00    7.9473648241389752E+00    2.7531214867268929E+01
H    1.0863726632519759E+00    8.1985882695449241E+00    1.5617744875959003E+01
H    4.6879405192925443E+00    2.9028617565578689E+00    1.5151525345307533E+01
H   -1.9864145066646670E+00    6.0498446374167107E+00    1.4022888852023303E+01
H    1.2573675287542676E+00    4.5683622165885254E+00    1.5101607248675769E+01
H    3.7507640634086585E+00    3.9851865781637916E+00    1.2599338197888766E+01
H    4.4031557228489238E+00    7.6848041305541983E+00    1.4870984517311360E+01
H    5.2613328726709145E+00    3.2496785548635461E+00    2.9402242997170671E+01
H    1.7517976320245594E+00    1.5440245776764270E+00    2.8299874084175261E+01
H   -1.7847225904943391E+00    6.4567688940905814E+00    2.8425230020864383E+01
H    5.8385785215034236E-01    6.5242124994329007E+00    2.9831286720986594E+01
H    3.2603720800592475E+00    5.0238707275339483E+00    3.0154508928843399E+01
H   -1.5177344857365103E+00    2.0777433566807710E+00    3.0771327559406714E+01
H   -1.1387662098740982E-01    1.7908949159423064E+00    1.5139857219234996E+01
H    3.2335214175159708E+00    5.1608922150508452E+00    1.5085020791283162E+01
H    2.4040577976230728E+00    3.3557709323096292E+00    1.2272260470046998E+01
H   -1.8524155077663225E+00    4.8196870798665614E+00    1.4957262644125088E+01
H   -9.6406460600200916E-02    4.8953185988297472E+00    1.4512379199173560E+01
H    3.2893223149239557E+00    8.1967742762619658E+00    1.3787144371081595E+01
OW    1.2908872058421871E+01    5.1228090188593960E+00    1.0436271470445451E+00
HW    1.2599166420384432E+01    4.5467231118554778E+00    2.9438677541581504E-01
HW    1.3852624209423629E+01    5.0337998064246241E+00    1.1191920978944070E+00
OW    8.0027384948827707E-01    2.6436925130586109E+00    1.2397254185621289E+01
HW    4.7296119254567376E-01    3.0592316364424295E+00    1.3262900353425497E+01
HW   -1.4293438543469693E-02    2.6947178581707387E+00    1.1899177743396566E+01
OW    4.6084485035003144E+00    6.8997085704959291E+00    7.1098755041908488E+00
HW    5.4324440851886120E+00    6.4629707099375002E+00    6.7186355741431170E+00
HW    3.8201918243143473E+00    6.7283395024680814E+00    6.5121084616855667E+00
OW    8.5220556847965003E+00    5.2721596081372857E+00    1.9490508492329923E+00
HW    9.1187044295576598E+00    6.0345887913443814E+00    1.8838448186470629E+00
HW    8.4611840593112611E+00    5.1080265531673694E+00    2.9095474800858359E+00
OW    1.0512189961747274E+00   -1.7576744718531927E-02    1.3000298182834475E+01
HW    7.2466971281328263E-01    8.4374927582717485E-01    1.2758402108474037E+01
HW    1.0223174915021467E+00    6.5838526035781275E-02    1.3979670501074775E+01
OW    1.1878290270204108E+00   -1.6426666263726120E+00    8.4010389962551741E+00
HW    1.6527591878121533E+00   -1.8942394902493671E+00    9.2170690480931707E+00
HW    1.8051226954974837E+00   -2.0087983113328582E+00    7.6837302334776023E+00
OW    3.4148543055804024E+00    2.9313976373375876E+00    7.2327517489161899E+00
HW    4.2385469387479260E+00    2.8400862516103342E+00    7.7748395072123477E+00
HW    2.8308900356414335E+00    2.3023090573221907E+00    7.7219745255375978E+00
OW    8.6304981568269419E+00    9.3395748808180006E+00    3.3311563349487865E+00
HW    8.3514026373487251E+00    8.9604889680465245E+00    4.2007809673467813E+00
HW    9.2373402905350321E+00    1.0071689446240649E+01    3.5372984144328785E+00
OW    3.0577611984561810E+00    4.3642318175152743E+00    4.9289269968687890E+00
HW    3.7408704412235418E+00    4.9640646428384132E+00    4.5771739697281282E+00
HW    3.2955371724253855E+00    3.8817570361965363E+00    5.6875475348187754E+00
OW    5.6641083239107592E+00    3.3243285966820970E+00    1.1178639614263009E+01
HW    4.7764375106753985E+00    2.8677402173682225E+00    1.1304958712274567E+01
HW    5.7599316303997901E+00    3.3657846738670885E+00    1.0193269366123948E+01
OW    1.9408119995875379E+00    9.1201454021081663E+00    9.8663399284484825E+00
HW    1.3859695351293344E+00    9.2124967365180463E+00    1.0620525223789196E+01
HW    2.5730878225372589E+00    8.4011238773386889E+00    1.0020744838959031E+01
OW    3.6946639697847883E+00    7.0327294621983194E+00    9.7214638626764405E+00
HW    4.4271585206097575E+00    6.6960545797541098E+00    1.0306993284567335E+01
HW    4.0717898939062112E+00    6.9740151970112709E+00    8.8084530648217765E+00
OW    6.7795783152465523E+00   -1.7823434399081950E+00    5.7654950792887840E+00
HW    6.4595240124975044E+00   -1.3396931738773274E+00    4.9988717644750116E+00
HW    6.6355093974701624E+00   -2.6915627760514846E+00    5.7780018991540736E+00
OW    5.2394962177554998E+00    5.9186888438180576E+00    1.1928983091762071E+01
HW    5.3965573725471812E+00    4.9684648990942506E+00    1.1702054564925072E+01
HW    6.0754250496719395E+00    6.1635679085681518E+00    1.2437323239636285E+01
OW    7.8600174564077052E-01    1.1380767523191939E+00    8.3009315571542803E+00
HW    7.1048584677076143E-01    1.3426765733731724E-01    8.3263246461364258E+00
HW    1.3767462538259061E+00    1.4821561040753761E+00    9.0807805987874985E+00
OW    5.8070605360447898E+00    3.1408331773539184E+00    8.5858186291240699E+00
HW    6.3733449279579713E+00    2.4998226395611405E+00    8.1650678271860002E+00
HW    6.3657517689707808E+00    3.9396953756905604E+00    8.1849079357522321E+00
OW    9.3434876392593829E+00    6.8696546523899276E+00    5.2108504555129649E+00
HW    8.4417023457525673E+00    7.2586424885957053E+00    5.3730010585354915E+00
HW    9.3006300575575747E+00    5.8916892481844769E+00    5.2569772456392290E+00
OW    1.9648694643583575E+00    5.1264224043259627E+00    1.0611287574132543E+01
HW    1.6383031603081855E+00    5.8000029032320013E+00    1.1319581605821305E+01
HW    2.7506451241501808E+00    5.5094572638138155E+00    1.0168722388714308E+01
OW    2.8921133077887151E+00    3.8512643236360278E+00    3.3870164280866106E+01
HW    3.4426383085597161E+00    3.8166573245457216E+00    3.3057819663610111E+01
HW    3.2278879030051804E+00    2.9916292760149394E+00    3.4213322707032205E+01
OW   -1.3674081433429521E+01    1.1834918396541777E+01    3.5638353646252511E+01
HW   -1.4388406602316245E+01    1.1403483158836346E+01    3.5116671379850359E+01
HW   -1.2907412586589345E+01    1.1594610015707126E+01    3.5025311998997459E+01
OW    6.2307359291186026E-01    1.3212047172573742E+00    3.4094232077468050E+01
HW   -6.7632868634235899E-02    1.9301427791149739E+00    3.3737758170939969E+01
HW    4.5768817512239013E-01    1.2824073159859692E+00    3.5084416509038618E+01
OW    1.9231593586341344E+01    8.8009287951165653E+00    4.1181124703960620E+01
HW    1.8310383498867424E+01    8.9863668993234818E+00    4.1450829688405740E+01
HW    1.9241056725589605E+01    7.9785403543871922E+00    4.0616467733197112E+01
OW    9.4269083085172756E-01    6.5797552466458997E+00    3.2221080653087817E+01
HW    1.8789568271639800E+00    6.5626106551497365E+00    3.2251813700251851E+01
HW    7.1162829950939588E-01    7.2319996360155079E+00    3.2917340119876741E+01
OW    1.7158520438740956E+00    3.1215680075278858E+00    3.0435387082933548E+01
HW    2.1460322529457247E+00    3.1010284588137367E+00    2.9540773743795963E+01
HW    1.6003578689130271E+00    4.0914838726214313E+00    3.0458275875469614E+01
OW    3.0926476415071211E+00    8.1525697655225251E+00    3.4108315316726497E+01
HW    2.3007428899991686E+00    7.7328963445353498E+00    3.4452632793443811E+01
HW    3.5609755731197610E+00    8.1608162412478027E+00    3.4989998268949620E+01
OW    5.5825999533897281E+00   -1.0401128510529489E+00    3.2338021179507713E+01
HW    4.7979177694292865E+00   -8.6918268828121215E-01    3.1783956050544418E+01
HW    6.3218497603963293E+00   -4.4443310269086062E-01    3.2160025274438908E+01
OW    1.7521245917990100E+01    2.9870899152334300E+00    4.2225030644407319E+01
HW    1.7690996490597808E+01    3.8752236323717293E+00    4.2495877173537252E+01
HW    1.6603999969635399E+01    2.7999518231510603E+00    4.2460414823569216E+01
OW   -9.0863969848740345E-01    1.0813627067689229E+01    3.3346658115134552E+01
HW    3.6862560977999212E-02    1.1014935701467765E+01    3.3124828840577116E+01
HW   -1.4771829735784656E+00    1.1441584648141212E+01    3.2843584260068184E+01
OW    4.2358512980696155E+00    2.2997011326902213E+00    3.1745677589665682E+01
HW    4.0240257385390246E+00    1.5492915411414823E+00    3.2354148021120018E+01
HW    3.3985453390431011E+00    2.4689748619999423E+00    3.1298341924217805E+01
OW    3.7402547301428411E-02    1.3908576007236244E+00    3.6777934653656082E+01
HW    1.1574953945430677E-01    2.2494975249661739E+00    3.7267774245909912E+01
HW    7.3924377293811028E-01    7.5774546735577708E-01    3.7138321305195632E+01
OW    1.4237827470311528E+01    1.0788570215417835E+01    4.3259006571077357E+01
HW    1.4012195032058836E+01    1.0780831427799040E+01    4.2274249099797075E+01
HW    1.4158462215251729E+01    9.8292988510488506E+00    4.3500586111981761E+01
OW    7.8024263674797503E+00    3.5611023794739602E+00    3.8201663508893830E+01
HW    8.7055773459491093E+00    3.2387639519671079E+00    3.7941304186796131E+01
HW    7.8995999325294521E+00    4.4754090107085762E+00    3.7906283613206497E+01
OW    3.5457015639186609E+00    5.7177676583017041E+00    3.8311754810682416E+01
HW    4.1794539763723071E+00    5.8991371836248065E+00    3.9050850880984925E+01
HW    3.4701198993170550E+00    4.7662176128359013E+00    3.8314573435785427E+01
OW    1.3618842374647091E+01    7.9927962040294345E+00    4.3279582413803688E+01
HW    1.2994973283668493E+01    8.2857361275365147E+00    4.2543780692923569E+01
HW    1.3219941092757294E+01    7.3048770589900096E+00    4.3946648393382766E+01
OW    4.0540716111708077E+00    7.7554510611658207E+00    3.6701319938038672E+01
HW    4.0458036630276544E+00    6.8519784792656440E+00    3.7181402797650975E+01
HW    5.0412569700505250E+00    7.9685992348828281E+00    3.6724562257480763E+01
OW    1.4983010820738816E+01    8.0591632731559741E+00    4.0079164218685904E+01
HW    1.4453305067819064E+01    7.4376955800924893E+00    3.9492047678420796E+01
HW    1.4997153897780288E+01    7.5924057657423232E+00    4.0949635277692309E+01
OW    1.2513973508871658E+01    5.9672577583614190E+00    4.5054036077240767E+01
HW    1.2374013317801090E+01    6.4875411645836376E+00    4.5884768519051725E+01
HW    1.2416838190048708E+01    5.0184507617676122E+00    4.5119211268760750E+01
OW    1.2460518618369150E+01    2.2968815902207225E+00    4.7795519206872799E+00
HW    1.1931455783488017E+01    1.9335290005288128E+00    5.5041922592810488E+00
HW    1.2434289902950001E+01    1.6688408792214853E+00    4.0722071658308101E+00
OW    1.2171119065936725E+01    3.7985041929902437E+00   -1.3098688641843674E+00
HW    1.1826596424936263E+01    2.9061825589694781E+00   -1.4223731815881548E+00
HW    1.1499940395401154E+01    4.4392966005674293E+00   -1.6813049209811681E+00
OW    1.4221862757911936E+01    3.1445644283599652E+00    4.7018757836131073E+01
HW    1.3595546155861518E+01    3.8225129199352001E+00    4.7380304454575217E+01
HW    1.4801572900806688E+01    3.5914767822150777E+00    4.6424672309976820E+01
OW    1.1865838982230333E+01    6.0508834569263561E+00    3.4230676665777482E+00
HW    1.2299481186890697E+01    5.6267813252537806E+00    2.6017642470035014E+00
HW    1.1013143717394161E+01    6.4940778080433006E+00    3.1808834939260824E+00
OW    2.5511332740842008E+00    9.5967165659940772E+00    3.7991824905545975E+01
HW    2.2395669236862346E+00    9.1238792901307910E+00    3.8816956374757616E+01
HW    3.1797275657379425E+00    8.9841581643082780E+00    3.7589414283471221E+01
OW    1.9104797435741098E+01    6.0871079562738153E+00    4.0385909913645172E+01
HW    1.9844392068346338E+01    5.5201013120203211E+00    4.0172119348659201E+01
HW    1.8803073768514668E+01    5.9182809075145348E+00    4.1345778792359717E+01
OW    8.1157524670715464E+00    6.4746997168403269E+00    3.7498909819227656E+01
HW    8.1929568995662425E+00    5.9510388677991184E+00    3.6647486907688339E+01
HW    8.9482678015471429E+00    6.4575863855041042E+00    3.7995314374056342E+01
OW    1.1546378433666719E+01    4.3427695421519328E+00    5.0788440342907258E+01
HW    1.1445385962176786E+01    4.1383871682106887E+00    5.1761031455745858E+01
HW    1.0663021389794578E+01    4.5092489727810099E+00    5.0478165332761186E+01
OW    1.8718903563196854E+01   -1.3773773678880377E+00    4.2847075549317729E+01
HW    1.9233356977002131E+01   -1.2026483167602251E+00    4.3633035847875099E+01
HW    1.7939282227942982E+01   -7.7064298760830963E-01    4.3013498561531357E+01
OW    1.3873075746753621E+01    4.1862931623415065E+00    4.0774967322657517E+01
HW    1.3241748009194030E+01    3.4393269325498279E+00    4.0863008024772675E+01
HW    1.4360158350214570E+01    3.9381666275403475E+00    3.9945711498169317E+01
     &END COORD
     &VELOCITY
          -5.8154655661706906E-05   -5.1525067968971291E-05    5.9053717279730049E-05
           7.2345433123018177E-05    5.5112339609436083E-05   -3.1346572824842811E-05
           9.7475358674329913E-05   -2.3351192916031471E-05   -8.8581039423911870E-06
          -6.8141587002713158E-05    5.9491939884298066E-05   -7.4071295881991399E-06
           1.2930797350077487E-04   -2.4264611302903293E-05    2.7165338771560705E-05
           2.4234441130706716E-05   -6.3239305335131401E-05   -3.2771114233490853E-05
          -2.0276690642801850E-05   -1.7980787890713769E-05   -5.3556819659859402E-05
          -3.0362753666393439E-05   -5.1664942202713323E-05   -1.3230351517303235E-05
           6.5918516695442482E-05    6.9715504603847157E-05    1.1257071029797591E-05
          -1.0645946574164923E-04   -2.0232933389713727E-05    9.1435248883203371E-06
          -7.8334082740854139E-05    3.7302602141708514E-05   -7.5071535071609551E-05
           2.4680436029165547E-05    2.8654127010088462E-05    6.0285932972572828E-06
           7.3241549146030449E-06    6.1500269480280962E-05   -1.6261029225947657E-05
          -1.0064179815228194E-04   -6.9149849409321483E-05   -1.2745297845390106E-05
           2.7239099382334776E-06    3.4389324546933272E-05    1.0013609804865697E-04
          -1.9703259365223547E-06   -1.1867131187807411E-04   -2.1237771183924733E-05
          -1.8624318005011623E-05    4.5355271390770217E-05    8.0181532873364422E-05
           8.5200070509096999E-05    4.7899103776621306E-05    8.0026398526437649E-05
           1.9661152348682522E-05   -6.0418627483615980E-05    1.1063578311199014E-04
           8.6538617864186901E-05    2.6211944970407215E-05   -4.6511615381342173E-05
           7.6006811939256975E-05   -5.5902430956978506E-05    3.6632772139397753E-05
          -7.7385627511909004E-05   -3.0874380806027089E-05   -5.1230152454379906E-05
          -7.2340494786850318E-06    4.4850937325451718E-05    1.4294300819328224E-04
          -3.4895192651825405E-05   -1.1031222749347660E-04    2.0870325253449209E-04
          -3.0148481832877938E-05   -5.7898737620571191E-05    2.2849999324432742E-04
           3.7941636187644626E-05    4.9484321071580959E-05   -4.5688564161408880E-05
          -1.8165228106074624E-04    8.8593767347838307E-06   -2.0982182006840520E-04
           9.9224350986776790E-05   -9.1257796279167495E-06    1.8515799403537306E-04
          -1.1938428720349729E-04   -4.6199488288069316E-05   -2.4495667572273368E-04
           1.8162954966362193E-04    1.3760751497467064E-04   -5.2044053412820992E-05
           2.3398004245377152E-04    5.3284856051222565E-04    2.4331645895978761E-04
          -1.2948758508598337E-04    2.4602628575379323E-04    3.6303478723649245E-04
           4.8927215083328027E-05    1.9871518188035726E-04    4.0551186166593435E-07
          -7.0278710011222633E-05   -1.2608201129241992E-04   -5.2569993819380893E-05
          -3.6731663192575995E-04    6.0811442364553169E-05   -5.9616099594279431E-05
          -1.8629592793528474E-04   -1.5080903686263936E-04    1.4935441914073472E-05
          -1.5438316506747102E-04   -9.6439521467933670E-05   -2.1295947952474368E-04
          -1.8700324880099571E-04   -1.0772776892966414E-04    3.7319100588376766E-05
           2.1631868943394603E-04    2.1356235433335117E-04    3.9681323302212784E-04
          -1.4290017105129679E-05    5.4018934802069489E-05    1.0636062734305831E-04