 # Version information for this restart file 
 # current date 2016-07-14 21:52:06.074
 # current working dir /fs3/e05/e05/gfvr/rcut-fixed-A-3189f38c0b82e789c60773310b94a123/run-2
 # Program compiled at                              Tue Feb  2 22:08:17 GMT 2016
 # Program compiled on                                                eslogin008
 # Program compiled for                                                   ARCHER
 # Source code revision number                                         svn:16458
 &GLOBAL
   PROJECT_NAME hematite
   OUTPUT_FILE_NAME ./out/base
   RUN_TYPE  MD
 &END GLOBAL
 &MOTION
   &MD
     ENSEMBLE  NPT_F
     STEPS  10000
     TIMESTEP     4.9999999999999994E-01
     STEP_START_VAL  500
     TIME_START_VAL     2.4999999999999795E+02
     ECONS_START_VAL    -4.5589206925946146E+03
     TEMPERATURE     3.3000000000000006E+02
     &BAROSTAT
       PRESSURE     1.0129999999999999E+00
       &VELOCITY
            -3.5109250354686053E-06    6.3959360945206729E-07   -4.0673547900168280E-07    6.3959360945206708E-07 \
            -3.4615643237375039E-06   -6.2813367113911492E-07   -4.0673547900168280E-07   -6.2813367113911492E-07   -3.8431133015421043E-07
       &END VELOCITY
       &MASS
             4.2330639099311793E+08    4.2330639099311793E+08    4.2330639099311793E+08    4.2330639099311793E+08 \
             4.2330639099311793E+08    4.2330639099311793E+08    4.2330639099311793E+08    4.2330639099311793E+08    4.2330639099311793E+08
       &END MASS
       &THERMOSTAT
         TYPE  CSVR
         &CSVR
           TIMECON     9.6755373060191385E-01
           &THERMOSTAT_ENERGY
                 9.7776901739953195E-02
           &END THERMOSTAT_ENERGY
           &RNG_INIT
Wiener process for Thermostat # 1        1 F T F   9.4380946372331231E-01        1810614026.0         417406437.0        2421081021.0        3661800906.0        1141876047.0         628275574.0             12345.0             12345.0             12345.0             12345.0             12345.0             12345.0             12345.0             12345.0             12345.0             12345.0             12345.0             12345.0
           &END RNG_INIT
         &END CSVR
       &END THERMOSTAT
     &END BAROSTAT
     &THERMOSTAT
       TYPE  CSVR
       REGION  GLOBAL
       &CSVR
         TIMECON     9.9999999999999982E+00
         &THERMOSTAT_ENERGY
               7.8851954565486571E-01
         &END THERMOSTAT_ENERGY
         &RNG_INIT
Wiener process for Thermostat # 1        1 F T F   1.0720623068895812E+00         908230163.0        3716970445.0        2851123288.0        2173325208.0          95241352.0          84637435.0             12345.0             12345.0             12345.0             12345.0             12345.0             12345.0             12345.0             12345.0             12345.0             12345.0             12345.0             12345.0
         &END RNG_INIT
       &END CSVR
     &END THERMOSTAT
     &AVERAGES  T
       &RESTART_AVERAGES
         ITIMES_START  1
         AVECPU     1.2627367896699826E+02
         AVEHUGONIOT     0.0000000000000000E+00
         AVETEMP_BARO     6.9373923254723763E+02
         AVEPOT    -4.5600258184169497E+03
         AVEKIN     4.0686337188316307E-01
         AVETEMP     3.6292976836443682E+02
         AVEKIN_QM     0.0000000000000000E+00
         AVETEMP_QM     0.0000000000000000E+00
         AVEVOL     1.5909307610655076E+04
         AVECELL_A     1.3774284909337114E+01
         AVECELL_B     1.3681614295067838E+01
         AVECELL_C     8.5154718785708198E+01
         AVEALPHA     8.6085455184842544E+01
         AVEBETA     9.4525649668119087E+01
         AVEGAMMA     9.4970769413001037E+01
         AVE_ECONS    -2.8072525653632385E+00
         AVE_PRESS    -1.3394289218805157E+04
         AVE_PXX    -2.0804129459188458E+04
       &END RESTART_AVERAGES
     &END AVERAGES
   &END MD
   &PRINT
     &TRAJECTORY  ON
       FILENAME ./traj/pos
       FORMAT  DCD_ALIGNED_CELL
       &EACH
         MD  1
       &END EACH
     &END TRAJECTORY
     &VELOCITIES  ON
       FILENAME ./traj/vel
       FORMAT  DCD
       &EACH
         MD  1
       &END EACH
     &END VELOCITIES
     &FORCES  ON
       FILENAME ./traj/for
       FORMAT  DCD
       &EACH
         MD  1
       &END EACH
     &END FORCES
     &RESTART  ON
       FILENAME ./restart/base
       &EACH
         MD  5
       &END EACH
     &END RESTART
   &END PRINT
 &END MOTION
 &FORCE_EVAL
   METHOD  QS
   STRESS_TENSOR  ANALYTICAL
   &DFT
     BASIS_SET_FILE_NAME ../input/BASIS_ADMM
     BASIS_SET_FILE_NAME ../input/BASIS_MOLOPT
     POTENTIAL_FILE_NAME ../input/GTH_POTENTIALS
     UKS  T
     CHARGE  0
     &SCF
       MAX_SCF  40
       EPS_SCF     1.0000000000000001E-05
       SCF_GUESS  ATOMIC
       &OT  T
         MINIMIZER  DIIS
         PRECONDITIONER  FULL_SINGLE_INVERSE
       &END OT
       &OUTER_SCF  T
         EPS_SCF     1.0000000000000001E-05
         MAX_SCF  600
       &END OUTER_SCF
     &END SCF
     &AUXILIARY_DENSITY_MATRIX_METHOD
       ADMM_PURIFICATION_METHOD  MO_DIAG
       METHOD  BASIS_PROJECTION
     &END AUXILIARY_DENSITY_MATRIX_METHOD
     &QS
       EPS_DEFAULT     9.9999999999999998E-13
     &END QS
     &MGRID
       CUTOFF     4.0000000000000000E+02
     &END MGRID
     &XC
       DENSITY_CUTOFF     1.0000000000000000E-10
       GRADIENT_CUTOFF     1.0000000000000000E-10
       TAU_CUTOFF     1.0000000000000000E-10
       &XC_FUNCTIONAL  NO_SHORTCUT
         &PBE  T
           SCALE_X     0.0000000000000000E+00
           SCALE_C     1.0000000000000000E+00
         &END PBE
         &XWPBE  T
           SCALE_X    -1.2000000000000000E-01
           SCALE_X0     1.0000000000000000E+00
           OMEGA     1.1000000000000000E-01
         &END XWPBE
       &END XC_FUNCTIONAL
       &HF
         FRACTION     1.2000000000000000E-01
         &SCREENING
           EPS_SCHWARZ     1.0000000000000000E-04
           SCREEN_ON_INITIAL_P  F
         &END SCREENING
         &INTERACTION_POTENTIAL
           POTENTIAL_TYPE  SHORTRANGE
           OMEGA     1.1000000000000000E-01
         &END INTERACTION_POTENTIAL
         &MEMORY
           EPS_STORAGE_SCALING     1.0000000000000001E-01
           MAX_MEMORY  2400
         &END MEMORY
       &END HF
       &VDW_POTENTIAL
         POTENTIAL_TYPE  PAIR_POTENTIAL
         &PAIR_POTENTIAL
           TYPE  DFTD3
           PARAMETER_FILE_NAME ../input/dftd3.dat
           REFERENCE_FUNCTIONAL PBE0
         &END PAIR_POTENTIAL
       &END VDW_POTENTIAL
     &END XC
     &PRINT
     &END PRINT
   &END DFT
   &SUBSYS
     &CELL
       A     7.1324772176505631E+00   -3.1770321881433090E-02   -2.3612623525631472E-02
       B    -5.7165143693975684E-01    7.0483926106306374E+00   -4.1164787201226322E-02
       C    -3.4329520864085952E+00    2.7661201005763596E+00    4.4928052863740447E+01
       PERIODIC  XYZ
       MULTIPLE_UNIT_CELL  1 1 1
       &CELL_REF
         A     7.4100000000000001E+00    0.0000000000000000E+00    0.0000000000000000E+00
         B    -5.6075082412935573E-01    7.3887521621203573E+00    0.0000000000000000E+00
         C    -3.4053693773037792E+00    3.1567202268075030E+00    4.4759787497415424E+01
         MULTIPLE_UNIT_CELL  1 1 1
       &END CELL_REF
     &END CELL
     &COORD
FE1    4.2266300172147870E+00    5.7379644966590240E+00    1.8893959092470922E+01
FE1    9.2373724634766774E-01    2.1288223507653425E+00    1.8970119231208404E+01
FE1    4.1759003585111305E+00    2.5632350316186190E+00    2.2943391283498759E+01
FE2    3.9509648660557631E-02    6.3372677491224030E+00    2.6870786756856262E+01
FE2   -8.2581822686433937E-01    6.8300501595130854E+00    1.6644150497813417E+01
FE2    2.4916607036863549E+00    7.3143986827423424E+00    2.0752538348128660E+01
FE2   -7.9488588493397294E-01    3.7397550335833407E+00    2.0728453242774194E+01
FE2    2.5349023637873738E+00    4.0980407956042040E+00    2.4532255507474638E+01
FE1    2.7442109638489751E+00    7.0270122525027174E+00    1.6746289674573564E+01
FE1   -4.4885134015814504E-01    3.4252918594131914E+00    1.6794048089134449E+01
FE1    2.7753089521700876E+00    3.7631986946198115E+00    2.0619330459117638E+01
FE1    3.6177908834667288E-01    6.1101857833030335E+00    2.2911507317284155E+01
FE1    3.7042370616643097E+00    6.4557762459204966E+00    2.6684702747825469E+01
FE1    3.1182723541451934E-01    2.7822680186734212E+00    2.6795928908693618E+01
FE2    4.5528783330444984E+00    2.1558440803988592E+00    1.9050253019471917E+01
FE2   -1.2661161773120644E+00    7.5973684666557624E+00    2.4539757391694742E+01
FE1   -1.1229634932577324E+00    7.2481344508589700E+00    2.0626967107502153E+01
FE1    2.2382530382659622E+00    7.6869532667990565E+00    2.4609350306332278E+01
FE1   -1.0200533413847643E+00    4.1022718698566099E+00    2.4644057284090039E+01
FE2    6.2006903238456590E-01    5.7110036705600811E+00    1.9066341433943052E+01
FE2    3.9001336400337330E+00    6.0725409936968955E+00    2.2867404432589115E+01
FE2    5.9663888385511121E-01    2.5831405235157958E+00    2.2924104568407568E+01
FE2    3.9619760909574948E+00    2.8833221559071274E+00    2.6915393468060348E+01
FE2    3.1640507194143370E+00    3.4381906858472449E+00    1.6971533789618491E+01
O   -1.7928953467198692E+00    6.0621012818060303E+00    2.7803821944873174E+01
O    9.4958766328490285E-01    7.4951356112475001E+00    1.6091392289594296E+01
O    4.3224271532793876E+00    7.5463422484711060E+00    1.9815064386007762E+01
O    1.0837524133159562E+00    4.0342311642988848E+00    1.9859558088141103E+01
O    4.3556640716388690E+00    4.3912026009853209E+00    2.3705612182852569E+01
O    6.4409428142867131E-01    6.9420448734013327E+00    2.9122078395488238E+01
O   -1.1791804928519234E+00    5.9134732083076802E+00    1.4603913119041904E+01
O    2.3234882430764063E+00    6.3286934323591115E+00    1.8596210652794355E+01
O   -9.4747962223298710E-01    2.9093758098659981E+00    1.8593945874214032E+01
O    2.3326914807735126E+00    3.1325034096180571E+00    2.2550364475175009E+01
O   -7.8717708062158220E-01    8.0924046130029801E+00    2.6425103004937093E+01
O   -6.5403995869254949E-03    5.2408637910147924E+00    1.7208618734487573E+01
O    3.2832642914799695E+00    5.4954316588402206E+00    2.1111060480812515E+01
O   -3.4625683048584703E-02    1.9705283029085641E+00    2.1086314515722020E+01
O    3.3292021475563205E+00    2.3564751591221920E+00    2.4973901886580730E+01
O    2.4697164270310568E+00    4.9530303183482758E+00    1.5902826813385607E+01
O   -8.5023307325151876E-01    1.5764441503657840E+00    1.5565748395459492E+01
O    2.5214905078484064E+00    1.8451106959336956E+00    1.9924703426345523E+01
O    5.3502016307106193E-01    7.9711446352760662E+00    2.3828574230999983E+01
O    3.9562374726825009E+00    8.1913188671658741E+00    2.7605000166175881E+01
O    7.7715395100690665E-01    4.6539371778707253E+00    2.7531078291722171E+01
O    4.6145354171781827E+00    6.4397332271545586E+00    1.7124021990670652E+01
O    1.3887041672252753E+00    2.9002188172987506E+00    1.7249305349771454E+01
O    4.6323249876665473E+00    3.0340932364666346E+00    2.0971486570381263E+01
O   -1.5172472436500326E+00    6.7924436298254545E+00    2.2508615750055291E+01
O    1.8829852767858497E+00    6.9314022613533304E+00    2.6373757178617748E+01
O   -1.4465752564052583E+00    3.5242897569245146E+00    2.6403813391256794E+01
O    3.4148414728710019E+00    7.4446296849114084E+00    1.4593392176263757E+01
O    5.5695523344420084E-01    3.8548135472104161E+00    1.4730702221545073E+01
O    3.6291009679948436E+00    3.9605359906163620E+00    1.8673499426985860E+01
O   -5.9523663103695301E-01    5.8500260045133503E+00    2.5147663315144733E+01
O    3.2367677416171379E+00    5.9685820266369962E+00    3.0020732944028079E+01
O   -2.3299055867761176E-01    1.9466631750408183E+00    2.9876546612423009E+01
O   -1.2662437290910287E+00    5.3642176754257251E+00    1.9843940514013131E+01
O    2.0195702129607178E+00    5.7707740497535776E+00    2.3670626079756655E+01
O   -1.2543240130962827E+00    2.2363707860829969E+00    2.3807456524178964E+01
O    1.9364606998671217E+00    2.2517708439476096E+00    2.7590867501150615E+01
O    4.9315375147338303E+00    3.7420051035342174E+00    1.5781924967357201E+01
O    7.7279847738859764E-01    6.6616609792024652E+00    2.1029856060847486E+01
O    4.0649336455544791E+00    6.9859298606573290E+00    2.4901022860122684E+01
O    7.8458291208375630E-01    3.3702118975292250E+00    2.4926161497539319E+01
O    4.5774322225610469E+00    3.5305614289024194E+00    2.8828634673506080E+01
O    3.3335621093033843E+00    3.0448497532327616E+00    1.3535201957859698E+01
O   -3.0912581926964783E-01    7.4352413796489705E+00    1.8605738662438704E+01
O    3.1032979764092294E+00    7.8743632991344947E+00    2.2433995782467942E+01
O   -2.1307033019573857E-01    4.3889852658356157E+00    2.2466267831929567E+01
O    3.2784794673098392E+00    4.6006249956523577E+00    2.6400241984187549E+01
O    3.7891839429793328E+00    1.7259578126440929E+00    1.7292589500463745E+01
H    4.7963757059700601E-01    2.4611868429377468E+00    3.0310370747111758E+01
H   -3.5742176304514379E-02    7.5015445254305622E+00    2.9530346921048320E+01
H    3.0503684818539791E+00    6.7445134639510718E+00    2.9449847561170834E+01
H    4.9795154780895459E+00    4.3374489358046731E+00    2.8423136651073158E+01
H    1.7255157584566716E+00    4.6220566017636422E+00    2.7150267393477062E+01
H    4.9504813041993723E+00    8.3545992071808790E+00    2.7431631599061802E+01
H    7.0125067676888331E-01    8.2095632562637952E+00    1.5538714058007914E+01
H    5.2523001792117938E+00    3.1552057341312074E+00    1.5057513461953615E+01
H   -1.6950546639357713E+00    6.4434872726141448E+00    1.3983417399820819E+01
H    1.4111916918572200E+00    3.9769486013620887E+00    1.5114235651862836E+01
H    3.4547266905499434E+00    3.5363784652325503E+00    1.4388475848792421E+01
H    4.3221829858598362E+00    7.8739243695519194E+00    1.4702232088901610E+01
H    5.2241091547435277E+00    2.8966498560212073E+00    2.9163357680688254E+01
H    1.8874749871563739E+00    1.2723329120994675E+00    2.7309121539129741E+01
H   -1.8443506088146495E+00    6.1171984843752689E+00    2.8799719796379897E+01
H    7.3498806663341343E-01    6.0432331828147872E+00    2.9506463588040372E+01
H    3.5047625587588382E+00    6.3297150382962117E+00    3.0898452062956995E+01
H   -8.0767867187480602E-01    1.9600848385235450E+00    3.0688380959178286E+01
H   -3.3007637232212167E-01    1.8003698817715126E+00    1.4812904971794053E+01
H    3.1639991892415948E+00    5.3260371333417824E+00    1.5331587129677530E+01
H    2.8185531705981650E+00    3.5380131382746338E+00    1.2854405165997138E+01
H   -1.7872818818222449E+00    5.1854939607772073E+00    1.4981981372205704E+01
H    2.6951975054453747E-01    4.8325679505813621E+00    1.4731793179494597E+01
H    2.9226768643720060E+00    8.2520523627976967E+00    1.4304485584800448E+01
OW    1.2703971487404431E+01    5.1281466501487012E+00    9.5282588977809279E-01
HW    1.2676097547689700E+01    4.7711191888370186E+00    7.1397219330945935E-02
HW    1.3620576779555124E+01    5.0929241984632565E+00    1.2774857599888443E+00
OW    7.0704687979008507E-01    2.5470507951252666E+00    1.2245033310999158E+01
HW    6.9680074443692031E-01    3.0564394027591186E+00    1.3076695821328975E+01
HW   -1.1074711348252354E-01    2.7522603023397068E+00    1.1663854922039988E+01
OW    4.7795680183038964E+00    7.0911215972775175E+00    7.5328062598714807E+00
HW    5.2568878398386838E+00    6.3526707081208516E+00    7.0311444024163148E+00
HW    4.0503118297734018E+00    7.2913226792730308E+00    6.8642435243054267E+00
OW    8.2663101474979275E+00    5.2685200199636224E+00    2.1086779527488160E+00
HW    8.7685632844272750E+00    6.0783429322487459E+00    2.2133003075668194E+00
HW    8.4366841377392152E+00    4.7191745299634418E+00    2.9053069973375072E+00
OW    1.5221036218136053E+00   -4.7270955112639547E-02    1.2598199358090286E+01
HW    1.0955447001871848E+00    8.8689187666141889E-01    1.2620793582883417E+01
HW    1.2989580360611328E+00   -2.4598790426446182E-01    1.3521902637184885E+01
OW    9.5888595581501912E-01   -1.4941625483698304E+00    8.2857343901048885E+00
HW    1.5938471621245305E+00   -1.4936494751336635E+00    9.1155402128609389E+00
HW    1.5032837348960093E+00   -1.8917571164437119E+00    7.5578939506343685E+00
OW    3.9791403502252232E+00    3.2457200130325852E+00    7.0431849947620160E+00
HW    4.8006385202440240E+00    3.2356960601081304E+00    7.5694659753484377E+00
HW    3.2685439628008375E+00    3.0510348826945108E+00    7.6846424607628903E+00
OW    8.5534938570430068E+00    9.8424263468871978E+00    3.0672553876178030E+00
HW    8.0461598865071284E+00    9.2325327145804756E+00    3.6190957451302488E+00
HW    8.9031366995708972E+00    1.0519704306897349E+01    3.6958631908262642E+00
OW    2.9671710807449738E+00    4.5720643795673999E+00    4.8413098280525855E+00
HW    3.6250948961024925E+00    4.9898440239990292E+00    4.2514946252425689E+00
HW    3.5220633018046050E+00    4.0772276220700192E+00    5.5282139280041029E+00
OW    5.4178381174082633E+00    3.5062677995975866E+00    1.1049675172136686E+01
HW    4.5013016245195461E+00    3.2734065211229799E+00    1.1146591362547442E+01
HW    5.6360527929880480E+00    3.2754917535513828E+00    1.0076048050970124E+01
OW    2.2946047154825129E+00    8.8350745542133868E+00    9.9790986851442032E+00
HW    1.8725052746369537E+00    8.8798122267382684E+00    1.0848847602659330E+01
HW    3.0366797592942336E+00    8.1461378976918510E+00    1.0130438656386211E+01
OW    4.0710398964600065E+00    6.8750162334707445E+00    1.0058148619912338E+01
HW    4.6795293659322184E+00    6.5840959721718555E+00    1.0774232095524484E+01
HW    4.4240218720837694E+00    6.7948627875449219E+00    9.1500914899099079E+00
OW    6.7703263361517809E+00   -1.9487525169515612E+00    5.9186835931745456E+00
HW    6.6027709456974177E+00   -1.5058673173099686E+00    5.0948094890186058E+00
HW    6.2789436051446152E+00   -2.8310138450141458E+00    5.9133341738506662E+00
OW    5.7310552999218185E+00    5.9975729988829647E+00    1.1803731484195358E+01
HW    5.6707919525404575E+00    5.0370629733132590E+00    1.1489065577213067E+01
HW    6.7009780608854141E+00    6.2058534837239154E+00    1.1702750117207890E+01
OW    7.4518115999729562E-01    1.3204290122405800E+00    8.3677923307148170E+00
HW    6.5016460423924427E-01    3.2425277589470963E-01    8.4439873191794614E+00
HW    1.6583399209748242E+00    1.5480138245440800E+00    8.7228294111604718E+00
OW    6.0836117754440400E+00    3.0849170682267002E+00    8.5561320789609514E+00
HW    6.8143442354115553E+00    2.4035579359392982E+00    8.4444704007401530E+00
HW    6.5367875192417673E+00    3.9462082342815377E+00    8.3925764066263628E+00
OW    1.0033769989448077E+01    7.2949240501469044E+00    5.3810020318309979E+00
HW    9.0809215207995422E+00    7.5839760675473196E+00    5.2776522767051537E+00
HW    9.9447461760106002E+00    6.3012703012536395E+00    5.4295828104022998E+00
OW    2.0130381620509903E+00    5.3974524357474687E+00    1.0418616452268365E+01
HW    1.4522107359420997E+00    5.8992267929439706E+00    1.0933578902856995E+01
HW    2.8767719806546501E+00    5.8571718275069093E+00    1.0257771504374785E+01
OW    2.6795353544731166E+00    4.2522346566364648E+00    3.2976663856740259E+01
HW    2.3515483762179294E+00    4.1935808645537289E+00    3.2051156017179643E+01
HW    3.4812102548999340E+00    3.7071128061774630E+00    3.2896801894348236E+01
OW   -1.3605191493092414E+01    1.2087695311739290E+01    3.5290168626673896E+01
HW   -1.4423993144099354E+01    1.1659300767233312E+01    3.4940790112496259E+01
HW   -1.2942891228658738E+01    1.1916932571706042E+01    3.4530709255303307E+01
OW    1.1833765884064775E+00    1.6715847758165518E+00    3.3809364792538837E+01
HW    7.0218731731237127E-01    2.4507409441157337E+00    3.3396575226114379E+01
HW    8.3047528536614745E-01    1.4327420617021092E+00    3.4701774650815246E+01
OW    1.9254515745387593E+01    9.0504473474228924E+00    4.1144972246057769E+01
HW    1.8392775357522332E+01    9.4675600725229874E+00    4.1490483423280921E+01
HW    1.9171467836528347E+01    8.2565677204225327E+00    4.0587930637574701E+01
OW    5.4456649278812985E-01    6.4420434621129576E+00    3.2007445381261277E+01
HW    1.1706536426463798E+00    6.5565272228479001E+00    3.1300835849343926E+01
HW    7.2917309499854843E-01    7.1470972784048046E+00    3.2695285670750870E+01
OW    2.2839450255831375E+00    2.8644276040920116E+00    3.0222673019957320E+01
HW    2.1588835141672704E+00    2.3313122001558977E+00    2.9349650101290422E+01
HW    2.5897890929251792E+00    3.5970108735894444E+00    2.9648008634863611E+01
OW    3.0097769044079468E+00    7.8725244071488092E+00    3.3647661115556701E+01
HW    2.2080794594631170E+00    8.4161769199844763E+00    3.3843774242923722E+01
HW    3.4470806573024206E+00    7.9873406522760213E+00    3.4499600040545978E+01
OW    5.4484610028508378E+00   -1.0327922268312923E+00    3.2367680776565606E+01
HW    5.1927365138352322E+00   -1.0372073523715777E+00    3.3317830190607971E+01
HW    6.1894289917680307E+00   -4.0065190679924179E-01    3.2291160677499718E+01
OW    1.7642564451481000E+01    2.9587532817797686E+00    4.2342308911752951E+01
HW    1.7635512788752568E+01    3.9942888397125409E+00    4.2341327135222969E+01
HW    1.6752633578089103E+01    2.8516826560303890E+00    4.2677889262272245E+01
OW   -9.6807117365931161E-01    1.0983911120725406E+01    3.2892812294621670E+01
HW   -6.1247284558430526E-01    1.1826857606568462E+01    3.2539972325908877E+01
HW   -1.8558315264155414E+00    1.0934474066134738E+01    3.2487797135095818E+01
OW    4.5973253364388071E+00    1.9809845918676163E+00    3.1632587092371960E+01
HW    4.2875255317799486E+00    1.3624033605833104E+00    3.2337989784755941E+01
HW    3.6867515812562099E+00    2.2408484477000501E+00    3.1263157553919751E+01
OW    3.8712367912030665E-01    1.5197043486500856E+00    3.6403457279161614E+01
HW    4.0835156290835140E-01    2.2448387760021218E+00    3.7092900424486096E+01
HW    9.5139823828634618E-01    7.6782273720740157E-01    3.6764467133673087E+01
OW    1.4632253449189934E+01    1.1219856186604277E+01    4.3263641641678070E+01
HW    1.4180810915546216E+01    1.1331740455369186E+01    4.2396896549072963E+01
HW    1.4101299518534024E+01    1.0499127306893673E+01    4.3632903201817044E+01
OW    7.9237656550837139E+00    3.6697294997962833E+00    3.7994397232861935E+01
HW    8.9154352920317788E+00    3.5203446925275235E+00    3.8005571491844542E+01
HW    7.8514861740723614E+00    4.6142168763688529E+00    3.7691663779245843E+01
OW    4.0027923676137371E+00    5.6075020812669072E+00    3.7741726857440334E+01
HW    4.3056767560883831E+00    5.9661106213389470E+00    3.8617017663646095E+01
HW    3.8898426497475009E+00    4.6314532401106359E+00    3.7832650649871049E+01
OW    1.3587586039720515E+01    8.5842483534798433E+00    4.3541125463423668E+01
HW    1.3008336608479361E+01    8.8129722864012656E+00    4.2740965385301045E+01
HW    1.3166649001300735E+01    7.7802377953658528E+00    4.3858852509050031E+01
OW    4.1721917046434527E+00    8.1275664960128058E+00    3.6512619668005442E+01
HW    4.0634528999914687E+00    7.1669009897901637E+00    3.6706434069304862E+01
HW    5.1155412439973365E+00    8.3621317305855403E+00    3.6550162255387889E+01
OW    1.5333961909278441E+01    7.8242960929168603E+00    3.9591631100300290E+01
HW    1.5392404373779376E+01    7.2870180282075667E+00    3.8791148722509085E+01
HW    1.4530366050057806E+01    7.5800436001964338E+00    4.0073970118136444E+01
OW    1.2484822241126318E+01    6.4233932180007312E+00    4.4930429980934726E+01
HW    1.2329191900886412E+01    6.9774658319608571E+00    4.5740833087296309E+01
HW    1.2161984460963145E+01    5.5446911419927742E+00    4.5167443684489164E+01
OW    1.2675248413290625E+01    2.1543706073852760E+00    4.9043487609615140E+00
HW    1.1931244227199851E+01    1.5232183506741448E+00    5.1573904365055290E+00
HW    1.2447147227762301E+01    2.2060234117397854E+00    3.9697744338071259E+00
OW    1.1979285364619249E+01    4.0067133942717446E+00   -1.3960414266730721E+00
HW    1.1688135644425207E+01    3.1204302416743794E+00   -1.1960427549663939E+00
HW    1.1266582068593262E+01    4.6496579465475687E+00   -1.5360930827541659E+00
OW    1.4208015838784133E+01    3.0653471391822515E+00    4.7076371953734522E+01
HW    1.3899293456566536E+01    3.9875088744033484E+00    4.7273713414866414E+01
HW    1.4770674453469166E+01    3.2280488648475019E+00    4.6323449774588468E+01
OW    1.1994038051072174E+01    5.8275452847967175E+00    3.5209248831307258E+00
HW    1.2232287587373678E+01    5.5433426208552161E+00    2.6135566614854628E+00
HW    1.1338530915847358E+01    6.4955027198169697E+00    3.3320545850801921E+00
OW    2.8348007172917442E+00    1.0075076031249099E+01    3.8411130134620805E+01
HW    2.9672076435038730E+00    9.7761173727588595E+00    3.9292813900523356E+01
HW    3.2133596296823543E+00    9.4159031576361798E+00    3.7806156668979789E+01
OW    1.9405689644295002E+01    6.3294267352982692E+00    4.0190768652237281E+01
HW    2.0014725160173860E+01    5.5288540852119956E+00    4.0331107746958658E+01
HW    1.8774652194084243E+01    6.2491827203252024E+00    4.0901264344339815E+01
OW    8.6865880734492205E+00    6.4319077874310704E+00    3.7283144486833095E+01
HW    8.6005531390719039E+00    5.8713903009908774E+00    3.6459054828485513E+01
HW    9.6460587687145356E+00    6.3933732671304533E+00    3.7475695440364056E+01
OW    1.1884514557822278E+01    4.0306304293482791E+00    5.0476149080589536E+01
HW    1.1972052542394295E+01    4.1822649728812662E+00    5.1421452903077508E+01
HW    1.0966681339404911E+01    4.2097139672385788E+00    5.0397733843582039E+01
OW    1.8522876249094395E+01   -1.3108416888544225E+00    4.2489559002970488E+01
HW    1.9069854258684590E+01   -1.1158103110559696E+00    4.3255649154296655E+01
HW    1.7653382549482526E+01   -8.8659901725711132E-01    4.2666656159165235E+01
OW    1.4001120767446793E+01    4.2215372614922089E+00    4.0851942697417712E+01
HW    1.3544911440122155E+01    3.3516490549643012E+00    4.0976303422076484E+01
HW    1.4469816856555719E+01    4.2060280636713321E+00    4.0017845507753073E+01
     &END COORD
     &VELOCITY
          -1.3250865429892648E-05   -8.3827182764245113E-05    1.1416853326071061E-04
           1.8871129222923692E-05    7.9789182319570036E-05   -4.3242785562899287E-05
           7.0241366200415702E-05   -4.9293716936816145E-05    8.4710064067579672E-05
           2.2879204789991856E-06   -3.0728641170930220E-05    1.3427951959229216E-04
          -2.7249775044639551E-05    1.8201878489111639E-04   -1.6849331936199730E-04
           8.1968143730871523E-05   -1.8285739101041469E-05    3.9457152480448385E-05
           6.9730202925991940E-05    1.4852777622112457E-05    8.1188202490013793E-05
           2.6769455700232985E-05   -1.1875279904740640E-05    1.5784078746440704E-04
          -1.4979129743931599E-04    3.3256255186731807E-05   -7.9057185862061905E-05
           1.5733808320531309E-04    3.8845116052458448E-06    2.4853853818787499E-05
           5.3803195283389958E-06    1.0639834367209561E-05   -4.1705083734426234E-05
          -3.5876438449880343E-06   -7.5151123678480122E-05   -1.7816499258640926E-05
           5.7252459384419380E-05   -9.0008723724592509E-06    1.4614898425613208E-05
           2.3056801216061471E-05    3.8233765383912158E-05    5.8245207615607237E-05
          -7.1443054989078585E-05   -3.8642627268313775E-05   -9.7425547744938094E-05
           3.3997235557338805E-05    9.6036987052227848E-05    2.0887930271705515E-04
          -5.3344878122200709E-05   -2.6916424129492633E-05   -4.4481233941411175E-05
          -3.5083343455679224E-05   -1.0873896567636025E-04    9.9068951560244331E-05
          -3.7650674972787949E-05   -2.9015075365830722E-05    2.9384439739970635E-06
          -9.4274405144172069E-06    6.7326940328018263E-05   -5.0537781884556836E-05
          -3.1359122359269496E-06    2.3957045424889942E-05    9.0321580897172410E-05
          -2.4748195051945023E-07    5.6391292484195747E-05    9.2579322205929698E-05
           2.3258791296423808E-05   -1.2867247301686445E-04   -1.3771813352327181E-04
           2.0884517001036785E-05    1.2576589601653377E-04    4.3032662965698172E-05
          -5.3656561573810300E-04    3.3180827350632188E-05   -2.3393744899972689E-04
           1.0181615042106292E-04    6.6802277940087217E-06    6.0225388048085046E-05
           1.1508807861222485E-04    1.1274844849456643E-04   -1.4337260534101864E-04
          -4.5771725024245487E-05   -4.6730037484967917E-05    2.0928064161616271E-04
           4.4858281032576452E-05    1.0605048631006134E-04   -6.1357023932908107E-05
          -1.1468600028119172E-04   -1.5592165899183319E-04    1.3383048317751738E-04
           4.0271867165071461E-05   -3.3414516377769268E-04   -4.2744956138821867E-05
           2.6820020784250081E-05    8.1722659232769828E-05   -1.9702647335517086E-04
           2.5198772865838956E-06    9.6314567443013638E-05   -1.2785703380344222E-04
          -4.6488941505976771E-05   -9.8864283758302019E-05   -9.0121966491817161E-05
          -8.3330207286788838E-05    2.3029711550045476E-04   -8.0394807724915730E-06
          -2.7028604354820276E-04   -3.1767582677596950E-05   -3.6727431989036898E-04
          -2.5954924438750632E-05    6.7395996304005538E-06    1.3837757838283697E-05
          -1.5398714413273267E-04   -7.3106946768276883E-05    2.4862279204306741E-04
           1.2163581477527612E-04   -3.4446343796791412E-05    4.0563318736334314E-05
          -1.0716552862019111E-04   -2.4950656380457782E-04   -4.1443073615984969E-04