 # Version information for this restart file 
 # current date 2016-07-12 18:20:01.929
 # current working dir /fs3/e05/e05/gfvr/rcut-fixed-A-3189f38c0b82e789c60773310b94a123/run-1
 # Program compiled at                              Tue Feb  2 22:08:17 GMT 2016
 # Program compiled on                                                eslogin008
 # Program compiled for                                                   ARCHER
 # Source code revision number                                         svn:16458
 &GLOBAL
   PROJECT_NAME hematite
   OUTPUT_FILE_NAME ./out/base
   RUN_TYPE  MD
 &END GLOBAL
 &MOTION
   &MD
     ENSEMBLE  NPT_F
     STEPS  10000
     TIMESTEP     4.9999999999999994E-01
     STEP_START_VAL  705
     TIME_START_VAL     3.5249999999999352E+02
     ECONS_START_VAL    -4.5589206925946146E+03
     TEMPERATURE     3.3000000000000006E+02
     &BAROSTAT
       PRESSURE     1.0129999999999999E+00
       &VELOCITY
            -2.0307776908721622E-06   -1.1669363024077431E-07   -2.2247476499531562E-07   -1.1669363024077431E-07 \
            -2.4091430843318260E-06   -3.5199312131582546E-07   -2.2247476499531562E-07   -3.5199312131582546E-07    2.1200799204286955E-06
       &END VELOCITY
       &MASS
             4.2330639099311793E+08    4.2330639099311793E+08    4.2330639099311793E+08    4.2330639099311793E+08 \
             4.2330639099311793E+08    4.2330639099311793E+08    4.2330639099311793E+08    4.2330639099311793E+08    4.2330639099311793E+08
       &END MASS
       &THERMOSTAT
         TYPE  CSVR
         &CSVR
           TIMECON     9.6755373060191385E-01
           &THERMOSTAT_ENERGY
                 1.0313675166972798E-01
           &END THERMOSTAT_ENERGY
           &RNG_INIT
Wiener process for Thermostat # 1        1 F T F  -1.0055912352455807E+00        2886066043.0        3142658229.0         902444708.0        2525358687.0        2427948757.0        3589694030.0             12345.0             12345.0             12345.0             12345.0             12345.0             12345.0             12345.0             12345.0             12345.0             12345.0             12345.0             12345.0
           &END RNG_INIT
         &END CSVR
       &END THERMOSTAT
     &END BAROSTAT
     &THERMOSTAT
       TYPE  CSVR
       REGION  GLOBAL
       &CSVR
         TIMECON     9.9999999999999982E+00
         &THERMOSTAT_ENERGY
               8.1450653516626881E-01
         &END THERMOSTAT_ENERGY
         &RNG_INIT
Wiener process for Thermostat # 1        1 F T F   5.7283659453248659E-01        1739787444.0        3389905246.0        2081663269.0        3134795237.0        3872938929.0        3038081790.0             12345.0             12345.0             12345.0             12345.0             12345.0             12345.0             12345.0             12345.0             12345.0             12345.0             12345.0             12345.0
         &END RNG_INIT
       &END CSVR
     &END THERMOSTAT
     &AVERAGES  T
       &RESTART_AVERAGES
         ITIMES_START  1
         AVECPU     1.2231715898947091E+02
         AVEHUGONIOT     0.0000000000000000E+00
         AVETEMP_BARO     5.8251661374993637E+02
         AVEPOT    -4.5600741449020898E+03
         AVEKIN     3.9509716735645456E-01
         AVETEMP     3.5243409296450579E+02
         AVEKIN_QM     0.0000000000000000E+00
         AVETEMP_QM     0.0000000000000000E+00
         AVEVOL     1.5659812101754796E+04
         AVECELL_A     1.3664158118982279E+01
         AVECELL_B     1.3562082332080436E+01
         AVECELL_C     8.5215654833263002E+01
         AVEALPHA     8.6245159968773450E+01
         AVEBETA     9.4563391895416189E+01
         AVEGAMMA     9.4920175616123146E+01
         AVE_ECONS    -2.6465493821872501E+00
         AVE_PRESS    -9.2742695178635367E+03
         AVE_PXX    -1.4961183312452966E+04
       &END RESTART_AVERAGES
     &END AVERAGES
   &END MD
   &PRINT
     &TRAJECTORY  ON
       FILENAME ./traj/pos
       FORMAT  DCD_ALIGNED_CELL
       &EACH
         MD  1
       &END EACH
     &END TRAJECTORY
     &VELOCITIES  ON
       FILENAME ./traj/vel
       FORMAT  DCD
       &EACH
         MD  1
       &END EACH
     &END VELOCITIES
     &FORCES  ON
       FILENAME ./traj/for
       FORMAT  DCD
       &EACH
         MD  1
       &END EACH
     &END FORCES
     &RESTART  ON
       FILENAME ./restart/base
       &EACH
         MD  5
       &END EACH
     &END RESTART
   &END PRINT
 &END MOTION
 &FORCE_EVAL
   METHOD  QS
   STRESS_TENSOR  ANALYTICAL
   &DFT
     BASIS_SET_FILE_NAME ../input/BASIS_ADMM
     BASIS_SET_FILE_NAME ../input/BASIS_MOLOPT
     POTENTIAL_FILE_NAME ../input/GTH_POTENTIALS
     UKS  T
     CHARGE  0
     &SCF
       MAX_SCF  40
       EPS_SCF     1.0000000000000001E-05
       SCF_GUESS  ATOMIC
       &OT  T
         MINIMIZER  DIIS
         PRECONDITIONER  FULL_SINGLE_INVERSE
       &END OT
       &OUTER_SCF  T
         EPS_SCF     1.0000000000000001E-05
         MAX_SCF  600
       &END OUTER_SCF
     &END SCF
     &AUXILIARY_DENSITY_MATRIX_METHOD
       ADMM_PURIFICATION_METHOD  MO_DIAG
       METHOD  BASIS_PROJECTION
     &END AUXILIARY_DENSITY_MATRIX_METHOD
     &QS
       EPS_DEFAULT     9.9999999999999998E-13
     &END QS
     &MGRID
       CUTOFF     4.0000000000000000E+02
     &END MGRID
     &XC
       DENSITY_CUTOFF     1.0000000000000000E-10
       GRADIENT_CUTOFF     1.0000000000000000E-10
       TAU_CUTOFF     1.0000000000000000E-10
       &XC_FUNCTIONAL  NO_SHORTCUT
         &PBE  T
           SCALE_X     0.0000000000000000E+00
           SCALE_C     1.0000000000000000E+00
         &END PBE
         &XWPBE  T
           SCALE_X    -1.2000000000000000E-01
           SCALE_X0     1.0000000000000000E+00
           OMEGA     1.1000000000000000E-01
         &END XWPBE
       &END XC_FUNCTIONAL
       &HF
         FRACTION     1.2000000000000000E-01
         &SCREENING
           EPS_SCHWARZ     1.0000000000000000E-04
           SCREEN_ON_INITIAL_P  F
         &END SCREENING
         &INTERACTION_POTENTIAL
           POTENTIAL_TYPE  SHORTRANGE
           OMEGA     1.1000000000000000E-01
         &END INTERACTION_POTENTIAL
         &MEMORY
           EPS_STORAGE_SCALING     1.0000000000000001E-01
           MAX_MEMORY  2400
         &END MEMORY
       &END HF
       &VDW_POTENTIAL
         POTENTIAL_TYPE  PAIR_POTENTIAL
         &PAIR_POTENTIAL
           TYPE  DFTD3
           PARAMETER_FILE_NAME ../input/dftd3.dat
           REFERENCE_FUNCTIONAL PBE0
         &END PAIR_POTENTIAL
       &END VDW_POTENTIAL
     &END XC
     &PRINT
     &END PRINT
   &END DFT
   &SUBSYS
     &CELL
       A     7.0513208842866346E+00   -2.2829734598536537E-02   -3.9908745212121781E-02
       B    -5.5665404930872475E-01    6.9564919834585224E+00   -5.3614879803644898E-02
       C    -3.4929972882769151E+00    2.6398784495711900E+00    4.5091663674132448E+01
       PERIODIC  XYZ
       MULTIPLE_UNIT_CELL  1 1 1
       &CELL_REF
         A     7.4100000000000001E+00    0.0000000000000000E+00    0.0000000000000000E+00
         B    -5.6075082412935573E-01    7.3887521621203573E+00    0.0000000000000000E+00
         C    -3.4053693773037792E+00    3.1567202268075030E+00    4.4759787497415424E+01
         MULTIPLE_UNIT_CELL  1 1 1
       &END CELL_REF
     &END CELL
     &COORD
FE1    4.0801854351009812E+00    5.7223335200112064E+00    1.9011908506580426E+01
FE1    9.4172933019209437E-01    2.1496908237634709E+00    1.9111278395381216E+01
FE1    4.1114068722552659E+00    2.3855781234621816E+00    2.3044560434759084E+01
FE2   -1.1632012182331859E-02    6.2301336396643316E+00    2.7045026246532338E+01
FE2   -8.1800611374007237E-01    6.8942962264064347E+00    1.6782352639502673E+01
FE2    2.4600554257896907E+00    7.1414776535163025E+00    2.0749861518283968E+01
FE2   -8.0929828656876068E-01    3.7178403495714663E+00    2.0741457384991488E+01
FE2    2.4326202862467778E+00    3.9216666828121673E+00    2.4742743759919140E+01
FE1    2.7391218969380788E+00    6.9411873142621721E+00    1.6565684842833580E+01
FE1   -5.1825637305748751E-01    3.4117982714240291E+00    1.6882190021281644E+01
FE1    2.7184132581859135E+00    3.7052521113046120E+00    2.0787933189421562E+01
FE1    2.8895115436984653E-01    5.9007926193178530E+00    2.2964488105178035E+01
FE1    3.4279735898539494E+00    6.2261183984027912E+00    2.6873015436030492E+01
FE1    2.9528943819183745E-01    2.8409634531014194E+00    2.6893114030835243E+01
FE2    4.3280303717992226E+00    2.1453276202784672E+00    1.9058986779629258E+01
FE2   -1.3225148018046970E+00    7.4943862767520253E+00    2.4764183284329061E+01
FE1   -1.0688211012616133E+00    7.1521488262128310E+00    2.0840116428258145E+01
FE1    2.1364025257175965E+00    7.4155842875229601E+00    2.4668461713440216E+01
FE1   -1.0407887491466175E+00    3.9937910456862142E+00    2.4736093632103625E+01
FE2    5.7123554737028248E-01    5.6215270910828377E+00    1.8996239016243369E+01
FE2    3.8197845799825894E+00    5.8655964216737457E+00    2.3014781027715426E+01
FE2    5.6613242299009270E-01    2.3939759833128513E+00    2.2892743645249208E+01
FE2    3.8669489509686228E+00    2.8005964044701588E+00    2.7022184467525971E+01
FE2    3.0079910964132357E+00    3.5485506395794855E+00    1.6911245993796538E+01
O   -1.9136664431212413E+00    5.8030758377170439E+00    2.7803584684218450E+01
O    9.9060659957607800E-01    7.3048216874588592E+00    1.5841096003049513E+01
O    4.2564245431754602E+00    7.5010396161338413E+00    1.9905506784693262E+01
O    1.0815496833742320E+00    4.0506441216690705E+00    1.9914252716387853E+01
O    4.3082256231456038E+00    4.2653891708768699E+00    2.3875800444846973E+01
O    2.8233433374096495E-01    7.2288427090784468E+00    2.9251355197752883E+01
O   -1.4640625417080799E+00    5.8336656047158018E+00    1.4827484896395061E+01
O    2.2025443254586685E+00    6.3125704009276005E+00    1.8617912984875780E+01
O   -9.5565715124858852E-01    2.9611038678677364E+00    1.8692464306694685E+01
O    2.2933552595909275E+00    3.0911096381085046E+00    2.2622922185360832E+01
O   -8.9809649631751665E-01    7.9803116406067041E+00    2.6524805779848752E+01
O   -5.4450474633204557E-02    5.2037653135813962E+00    1.7174891053285464E+01
O    3.2005133693379659E+00    5.4202165302541037E+00    2.1168910927952428E+01
O    1.0108965959644337E-01    1.9318988463741369E+00    2.1076250887005752E+01
O    3.2433433455967062E+00    2.2277211711162148E+00    2.5257079922944854E+01
O    2.5089320924218832E+00    5.1480619161858536E+00    1.5745072486965451E+01
O   -8.6759676012185116E-01    1.5366449722077460E+00    1.5743561170630581E+01
O    2.5444413716795355E+00    1.8631551912707518E+00    2.0024789008120234E+01
O    4.6631867129684740E-01    7.7824356056126387E+00    2.3873714562366615E+01
O    3.8929386528760754E+00    8.0356856123483027E+00    2.7766986155970518E+01
O    5.8837425224217832E-01    4.5848553307702415E+00    2.7914935407077241E+01
O    4.4529265992255738E+00    6.3811571885857452E+00    1.7171813385788948E+01
O    1.2534306496340748E+00    2.8498165642236151E+00    1.7259780854415602E+01
O    4.5883301599813517E+00    3.0486166796795309E+00    2.1148689907207704E+01
O   -1.5124304688048364E+00    6.6047987932842771E+00    2.2643607759887221E+01
O    1.7460872712434650E+00    6.7502157849117754E+00    2.6461908719594771E+01
O   -1.4725759701091798E+00    3.3614924411635125E+00    2.6597424621322393E+01
O    3.4929945721811300E+00    7.4627300376994459E+00    1.4367670863831668E+01
O    4.3506230652183453E-01    4.1021012939922512E+00    1.4597842259420455E+01
O    3.5861455374489002E+00    3.9635770825147878E+00    1.8672662485827814E+01
O   -6.0164475802150330E-01    5.6728595637526027E+00    2.5211429731899820E+01
O    2.8453694621448244E+00    5.8652161970153651E+00    3.0207479959442807E+01
O   -7.3697387637407585E-01    2.0529851749041379E+00    3.0292267453482509E+01
O   -1.2686269948291566E+00    5.3802009863336133E+00    1.9810475034295877E+01
O    1.9709170674956245E+00    5.5525893554868588E+00    2.3850281952952312E+01
O   -1.2184236399385597E+00    2.1189181620206607E+00    2.3829252186022767E+01
O    1.9624600420544043E+00    2.2814139115892100E+00    2.7792740313017536E+01
O    4.6812192920938944E+00    3.6301439071502952E+00    1.5799318663668881E+01
O    7.8612345825419827E-01    6.4540000953400840E+00    2.1176947799508206E+01
O    3.8999166147328763E+00    6.8111517871771605E+00    2.5015615420839044E+01
O    7.1732867903826847E-01    3.3066318195593043E+00    2.5034155475212913E+01
O    4.4336871276613596E+00    3.7552731533217560E+00    2.9093535664217750E+01
O    3.3002064005162310E+00    3.1659167131004975E+00    1.2594121257365423E+01
O   -2.2119834712533570E-01    7.4369759403744293E+00    1.8595647395005699E+01
O    2.9836453806928533E+00    7.6436946762423119E+00    2.2624086228402202E+01
O   -2.6349150587218378E-01    4.1642985701062889E+00    2.2582100587951928E+01
O    3.0053599426209470E+00    4.4607865641805988E+00    2.6503035085688371E+01
O    3.6829182443969737E+00    1.7751123819174415E+00    1.7259564006443721E+01
H    4.7092313924281828E-02    2.5362213680162715E+00    3.0739641230778243E+01
H   -4.4827793435820956E-01    7.8691710786554401E+00    2.9498236270400991E+01
H    3.2439730046401443E+00    6.6626464149167033E+00    2.9804349361636444E+01
H    4.9282456090710509E+00    4.4633547396021029E+00    2.8510783494260249E+01
H    1.5577533631259073E+00    4.6882358442105172E+00    2.7996379329304744E+01
H    4.8658770079922897E+00    8.0766978946121117E+00    2.7197830909430778E+01
H    1.1739781751587754E+00    8.2705742624720866E+00    1.5901088313871647E+01
H    4.7155893479886961E+00    2.9518634577683303E+00    1.5105533104742834E+01
H   -2.0403698682083764E+00    5.8620735308248975E+00    1.4047977424519821E+01
H    1.2338928832225160E+00    4.5294163109585286E+00    1.5003439400774676E+01
H    3.6951854872524357E+00    4.0118376344649134E+00    1.2752829101361593E+01
H    4.3214892472617707E+00    7.9338259863028293E+00    1.4817392634008032E+01
H    5.1661831543356387E+00    3.2468061670608734E+00    2.9524789316943981E+01
H    1.9631494366920434E+00    1.5715292850630485E+00    2.8444782520994572E+01
H   -1.7094411214523713E+00    6.3484794751023550E+00    2.8575387024581250E+01
H    3.5214930940323569E-01    6.6509507607041591E+00    3.0022074681658658E+01
H    3.4517366916501926E+00    5.1372346564700599E+00    2.9816521490746126E+01
H   -1.4502752866900008E+00    2.0085727257166557E+00    3.0970415630533143E+01
H   -4.1847332147309418E-01    1.5912948947060233E+00    1.4839281212253056E+01
H    3.2883926106610426E+00    5.2052813454744475E+00    1.5184238379867883E+01
H    2.3191612525773362E+00    3.3045720554117626E+00    1.2425198135907818E+01
H   -1.6918932529262418E+00    4.9625675280072574E+00    1.5317713711266913E+01
H   -1.4384075171859154E-01    4.8968841262260687E+00    1.4414436578235629E+01
H    3.1794908742631423E+00    8.2199401885737657E+00    1.3848396485362022E+01
OW    1.2919900256427276E+01    5.1242315530627707E+00    1.0419319011091677E+00
HW    1.2742144914023827E+01    4.6698254865701854E+00    2.1516207883579880E-01
HW    1.3846462682247035E+01    5.1108261408944751E+00    1.2170142511962772E+00
OW    8.0402581353747693E-01    2.6361993317612948E+00    1.2417112659594167E+01
HW    7.1601934259110900E-01    3.2475581579092085E+00    1.3330324078615911E+01
HW   -5.3133346389592710E-02    2.8523243649785774E+00    1.1882196573976080E+01
OW    4.5883287820201408E+00    6.8998441491817726E+00    7.1087118052455063E+00
HW    5.3316304838007591E+00    6.3704537531875927E+00    6.7247657795832900E+00
HW    3.9288177097724812E+00    6.7181817062670381E+00    6.4541572268277241E+00
OW    8.5786077200510267E+00    5.2548237184337330E+00    1.9308227202328685E+00
HW    9.1454847200331173E+00    6.0643555291200446E+00    1.8756231131823069E+00
HW    8.3896810794788834E+00    5.1015659364646835E+00    2.8485126381556922E+00
OW    1.0036438975660353E+00   -7.3487454236614749E-02    1.3038998189585191E+01
HW    8.8794685483796709E-01    8.8394744517515922E-01    1.2903518045753225E+01
HW    1.2221043931590747E+00   -1.6328316401167339E-01    1.3996877017848183E+01
OW    1.2215687666492898E+00   -1.6526237368252990E+00    8.4366479490872379E+00
HW    1.5981127194985167E+00   -2.0268570782583160E+00    9.3020700955151980E+00
HW    1.7278089642658592E+00   -1.8357399510176260E+00    7.6654275296827405E+00
OW    3.3634803504797839E+00    2.8887559538787966E+00    7.2265168389704115E+00
HW    4.1908397396173056E+00    3.0317230987926838E+00    7.7316562181757424E+00
HW    2.7587655631623687E+00    2.3348326446593410E+00    7.7534746575233946E+00
OW    8.6295580086483330E+00    9.2767263890377585E+00    3.2884786481462198E+00
HW    8.2170235558810969E+00    8.9668099598665130E+00    4.1640859885799566E+00
HW    9.1308950281553223E+00    1.0040868304881364E+01    3.6881748195558517E+00
OW    3.0348480678230305E+00    4.3853264149682181E+00    4.9408300815233304E+00
HW    3.8012844595286235E+00    4.9014820702486448E+00    4.7078998703457051E+00
HW    3.2983260261126834E+00    3.8260655391430318E+00    5.7306508649001140E+00
OW    5.6837408549801749E+00    3.3274979187233167E+00    1.1157258240797365E+01
HW    4.9443076137014446E+00    2.8389166030862629E+00    1.1503277574658036E+01
HW    5.7367239158848990E+00    3.3358707045969673E+00    1.0114244429746895E+01
OW    1.9320382672820129E+00    9.1426443658544603E+00    9.8373809670195271E+00
HW    1.4559377902885922E+00    9.3431592401610164E+00    1.0648586030890009E+01
HW    2.5059451042538332E+00    8.3344691295883795E+00    1.0077479150459157E+01
OW    3.6782147427371159E+00    7.0178306000403525E+00    9.7241320400814413E+00
HW    4.4297228758503877E+00    6.7417990426792578E+00    1.0316380073505158E+01
HW    3.9912757901719966E+00    7.1486591897756773E+00    8.8208125999659330E+00
OW    6.8237710763859445E+00   -1.7675265919974952E+00    5.7405579253060894E+00
HW    6.4001379020441460E+00   -1.4563661871953550E+00    4.9279145924124990E+00
HW    6.6826628787106230E+00   -2.7071164458560735E+00    5.5983227246250058E+00
OW    5.2324820220463444E+00    5.9229919699483506E+00    1.1874484024700266E+01
HW    5.3413104056664684E+00    5.0301217311458322E+00    1.1525739354038567E+01
HW    6.1228575550854041E+00    6.1595177768853997E+00    1.2235941667141615E+01
OW    7.4260964865329171E-01    1.1249810587081943E+00    8.2572978371106824E+00
HW    6.6518970139018607E-01    1.6613825181536548E-01    8.4102742903080028E+00
HW    1.3352817343526870E+00    1.4544494281997560E+00    8.9902928155241888E+00
OW    5.8218865459430154E+00    3.1112434857199549E+00    8.5809842955427804E+00
HW    6.3224650780641509E+00    2.2567870836627000E+00    8.4025173752843951E+00
HW    6.2221857793650219E+00    3.9749120217430538E+00    8.1815442949662138E+00
OW    9.2896791325209040E+00    6.8328587661236648E+00    5.1989203631837979E+00
HW    8.4273709184628096E+00    7.2920222827469283E+00    5.3848782546692062E+00
HW    9.1727491354608457E+00    5.8828238165693056E+00    5.3009640864655259E+00
OW    1.9596457612717031E+00    5.1454423794617643E+00    1.0666792972037340E+01
HW    1.6079277559385274E+00    5.7588890569746889E+00    1.1373974311779872E+01
HW    2.5846210446100044E+00    5.7081405702536729E+00    1.0133803619369399E+01
OW    2.9227229076096402E+00    3.8566737092268224E+00    3.3974273937596159E+01
HW    3.3346385628023469E+00    3.7671623614969434E+00    3.3104635289626238E+01
HW    3.0618107654241831E+00    2.9577398205701240E+00    3.4381352372363288E+01
OW   -1.3713989076243623E+01    1.1787044410771189E+01    3.5653224517239082E+01
HW   -1.4379307860080001E+01    1.1398244887477722E+01    3.5064175739514205E+01
HW   -1.2867103218708296E+01    1.1775596925249177E+01    3.5233787492756136E+01
OW    5.9025039673591773E-01    1.2410003001307814E+00    3.4143177495417085E+01
HW    1.6176399101225811E-01    2.1083237831584332E+00    3.3860358821900007E+01
HW    3.9143436807548682E-01    1.2638280454430975E+00    3.5093619898462549E+01
OW    1.9173943863016895E+01    8.8016674289589005E+00    4.1174265069157514E+01
HW    1.8289020669505117E+01    8.9879819709244959E+00    4.1516531599649333E+01
HW    1.9315961104165989E+01    8.1144326848699535E+00    4.0575802762347138E+01
OW    9.3155932333175273E-01    6.5842906148882392E+00    3.2284149136256666E+01
HW    1.8267937639472733E+00    6.8610530796808717E+00    3.2107428249023769E+01
HW    5.2960378465891267E-01    7.2489704216547741E+00    3.2876959721744250E+01
OW    1.6615270040596368E+00    3.1734606680823214E+00    3.0511388095423857E+01
HW    1.7856904870938348E+00    2.8839645971922065E+00    2.9562034992933452E+01
HW    1.5183668932646068E+00    4.1311720902171460E+00    3.0486941762649025E+01
OW    3.0663565435325193E+00    8.2127081100776369E+00    3.4132126493199365E+01
HW    2.1939583531279037E+00    7.8472858479327758E+00    3.4335241840128482E+01
HW    3.6346697996488562E+00    8.0376156032378248E+00    3.4907944914830701E+01
OW    5.6174865061337043E+00   -1.0740003120754804E+00    3.2355005097639371E+01
HW    4.8987932532522001E+00   -1.0801728231767023E+00    3.1718622066096554E+01
HW    6.2775226908758643E+00   -4.5239731806639594E-01    3.2033867485752843E+01
OW    1.7527254193770673E+01    2.9650490789995252E+00    4.2217989260394710E+01
HW    1.7664761737986467E+01    3.8499769646282420E+00    4.2504138611209235E+01
HW    1.6556359852253756E+01    2.8781819726148066E+00    4.2359302948785263E+01
OW   -9.1498451338089948E-01    1.0824414728131590E+01    3.3347465111926269E+01
HW    6.3551250608280527E-02    1.1081217607400854E+01    3.3152226517374743E+01
HW   -1.4426153421299082E+00    1.1590736980422813E+01    3.2929810712513749E+01
OW    4.2143960350287415E+00    2.2753761416536711E+00    3.1790031576906046E+01
HW    4.1423742823273075E+00    1.5928335220322869E+00    3.2480468060979156E+01
HW    3.3529538479919667E+00    2.4196887929633628E+00    3.1431100929124305E+01
OW    2.7820028358030772E-02    1.3800008228273979E+00    3.6812586637749419E+01
HW    3.1425924856867188E-01    2.2666181649364163E+00    3.7135349181960542E+01
HW    6.6191889350006583E-01    7.6434175173962393E-01    3.7163712782443149E+01
OW    1.4239998007535373E+01    1.0753269352225667E+01    4.3288603566528920E+01
HW    1.4078988868652909E+01    1.0813785714058547E+01    4.2289073980120506E+01
HW    1.4100811068530676E+01    9.8681546441595867E+00    4.3634508424615021E+01
OW    7.8471036130023224E+00    3.6062258027809309E+00    3.8197773969926416E+01
HW    8.7386208428469789E+00    3.2996896887952829E+00    3.7927655018618765E+01
HW    7.6994939120032084E+00    4.4738936426233176E+00    3.7770707224965697E+01
OW    3.4996896754337281E+00    5.6976259087460965E+00    3.8365945730108784E+01
HW    3.9495340721323986E+00    5.7876146747081654E+00    3.9248621219050420E+01
HW    3.2346008267207211E+00    4.7786088624598655E+00    3.8271234561135934E+01
OW    1.3670751434122360E+01    7.9712951840488318E+00    4.3316912441910453E+01
HW    1.3003542088675660E+01    8.1153924596571692E+00    4.2618803606004157E+01
HW    1.3258971737620453E+01    7.2533770278678782E+00    4.3852825762726020E+01
OW    4.0544015261177080E+00    7.7220087230551053E+00    3.6719255981857934E+01
HW    3.9970103372634700E+00    6.8109124619535466E+00    3.7154655209256937E+01
HW    4.9994386354762135E+00    8.0083350063123149E+00    3.6836625330965795E+01
OW    1.4981893163547834E+01    8.0752741194856235E+00    4.0142498661141524E+01
HW    1.4412610701026603E+01    7.5856107226453791E+00    3.9519051554336627E+01
HW    1.5068596212558576E+01    7.6860883908044766E+00    4.1023681503182900E+01
OW    1.2577096066727773E+01    5.9488409969688911E+00    4.5112996959036124E+01
HW    1.2388831849396716E+01    6.4866134431551679E+00    4.5915056885281793E+01
HW    1.2345217924214159E+01    5.0868907966399615E+00    4.5463888353037767E+01
OW    1.2432013754816609E+01    2.3060568665341443E+00    4.8101426002848076E+00
HW    1.1811709338870621E+01    1.8224002026781243E+00    5.4103894366754419E+00
HW    1.2443586775425787E+01    1.6079337333990147E+00    4.1301697811720564E+00
OW    1.2202400271061210E+01    3.7377534503247860E+00   -1.3305148212393636E+00
HW    1.1835577368586414E+01    2.8136421287048408E+00   -1.2846854044149882E+00
HW    1.1463307051481010E+01    4.3447337439510756E+00   -1.5012999982166590E+00
OW    1.4225924857333942E+01    3.1153875761432150E+00    4.7037329334197622E+01
HW    1.3608939526766365E+01    3.8064496686635163E+00    4.7483504841787273E+01
HW    1.4715974369869770E+01    3.6574115115606398E+00    4.6426023486726677E+01
OW    1.1872257000309284E+01    6.0923052830544568E+00    3.4032535576284908E+00
HW    1.2290525158498655E+01    5.6783354225306466E+00    2.5879196848374630E+00
HW    1.1105888077530729E+01    6.4998712609990354E+00    2.9392122615656051E+00
OW    2.5265787255710448E+00    9.5557267399506269E+00    3.8016431604472963E+01
HW    2.2873354642025636E+00    9.2608869749960743E+00    3.8947943968733249E+01
HW    3.1716639609635378E+00    8.8849343705722639E+00    3.7605019736256864E+01
OW    1.9082692626856318E+01    6.1347295960130301E+00    4.0362790612891203E+01
HW    1.9802044036956190E+01    5.3821009593233837E+00    4.0397481964573821E+01
HW    1.8797251700858062E+01    5.9436743109280696E+00    4.1270124990434475E+01
OW    8.0749589741355603E+00    6.4443434804426651E+00    3.7571847824583742E+01
HW    8.0917197241923642E+00    6.0654504459122736E+00    3.6660236857816606E+01
HW    9.0173312008054705E+00    6.5110722846262554E+00    3.7801397389691338E+01
OW    1.1503783046966825E+01    4.3548086989255506E+00    5.0842562328497550E+01
HW    1.1400586225501209E+01    4.2727744078276517E+00    5.1834257292654108E+01
HW    1.0616275652022619E+01    4.5919698122965471E+00    5.0489716620027956E+01
OW    1.8669653297062901E+01   -1.3790524414659744E+00    4.2939045451027830E+01
HW    1.9218152195827628E+01   -1.2622344980353442E+00    4.3734107206423822E+01
HW    1.7816978234371529E+01   -8.8245006489355704E-01    4.3084423186453336E+01
OW    1.3888974325830425E+01    4.1131169475733325E+00    4.0824229659080757E+01
HW    1.3296521801014709E+01    3.3240219192140952E+00    4.0874737405547890E+01
HW    1.4235457899081075E+01    4.1063682870701355E+00    3.9881883082426995E+01
     &END COORD
     &VELOCITY
          -7.4856957225158055E-05   -1.1010770506044939E-05    5.6029295276894862E-05
           3.0269948997294286E-05    1.0286663750766076E-04   -6.5387162188342945E-05
           1.1270941887280226E-04    4.4456457131928816E-05   -1.0518302255596987E-05
          -4.4093599265336741E-05    8.9329336510925026E-05   -6.7086989601657755E-05
           5.0672416015555445E-05   -1.4731774007049116E-05    4.8258141219816465E-05
           1.7017340155023967E-05   -4.0387289623959918E-05   -1.2787416177857923E-05
           8.2417631401303915E-06   -1.0968277806948175E-05   -9.3168077080129686E-05
          -5.7536367059130421E-06   -5.5338456547774877E-05   -2.4916139197416766E-05
           7.8980595446744611E-05    1.0566315149079409E-04    1.0927822210225875E-04
          -8.8014260666767171E-05   -1.0682913216649140E-05    3.7931906261823839E-05
          -7.8731163807059011E-05    1.8288056859891373E-05   -6.6312574547719769E-05
           7.4408077808590283E-05    3.7437464042066648E-05    3.5950655498951322E-05
           2.1029712839489810E-05    3.3865765639473268E-06    1.6784754305927867E-05
          -5.8644131321884407E-05   -1.1074686210937167E-04    2.9239274760785893E-05
           3.8783149464485877E-05    4.9098339020965282E-05    9.8990940809882066E-05
          -3.4595167792142665E-05   -1.6065855431996473E-04   -4.8177495484400447E-05
          -4.3652651121781683E-05    2.4114984535561760E-05    6.3416204447170325E-05
           4.1630002085866005E-05    1.0033576041169903E-04    5.4338244901615487E-05
          -4.8793260633406511E-05   -8.5626402572445848E-05    6.7871195830281015E-05
           9.5917032257043319E-05    5.4173949101416952E-07   -3.9441171041443274E-05
           8.1244864332140931E-05   -4.1701951274336503E-05    5.9998666192309973E-05
          -5.3893550476511691E-05   -2.1138610938100168E-05    8.2289472090913929E-06
          -4.1623362163954978E-05   -2.3055143751674063E-06    1.7970052218414174E-04
          -5.4852865681387877E-05   -1.7072378375333037E-04    2.6552551460672319E-04
           3.0174206195471574E-04   -8.4559684957762304E-05    3.9388070443388155E-04
           2.6982618970636442E-04    2.6018898338920141E-04   -2.3288821541728351E-04
          -1.0377159325222526E-04   -1.4293964180537858E-05   -1.7837168249109137E-04
           8.3256619006154050E-05   -1.1177406920600908E-04    2.3368856417836813E-04
          -1.9400652123361469E-04   -9.3463709209868075E-05   -3.3284711022058179E-04
           1.5173423129202554E-04   -7.1122072507456343E-07   -2.1534730642649600E-04
           9.6207115020023869E-05    2.8140991836333957E-04   -1.8676190881206756E-04
           1.7047883278838161E-04    3.1696537520200450E-04    2.3344086808890809E-04
          -8.0886680556528637E-05    1.0601990689081322E-06   -4.9017094792213692E-05
          -9.1103375099018928E-05   -1.3791762692975807E-04   -5.7519630353120757E-05
          -1.9399016001929486E-04    7.5912078130655172E-05    1.1168674018796244E-04
          -2.2489366022400577E-04   -3.9171238026958200E-04    4.8665463751335188E-05
           1.2874800207785691E-06   -9.3266392520779116E-05   -2.0829571790124970E-04
          -2.7311762242399529E-04   -6.7063087792928477E-05    9.4164945011265044E-05
           2.1538015557101388E-04    1.8889491440968789E-04    2.0883444360513681E-04
          -4.7615999860120728E-05   -1.1816649569195631E-04    7.1196388698776386E-05